 $CONTRL SCFTYP=GVB RUNTYP=ENERGY ICHARG=0 MULT=2 NOSYM=1 ICUT=11
  MAXIT=500 ISPHER=1 $END
 $SYSTEM MWORDS=312 $END
 $SCF NCO=9 NPAIR=2 NSETO=1 NO(1)=1 DIRSCF=.T. $END
 $GUESS GUESS=MOREAD NORB=32 $END
 $DATA
GAMESS inp file produced by MOKIT,nif=32,nbf=32
C1   1
Si   14.         0.00000000         0.00000000         0.00000000
   S 11
   1   7.88600000E+04   2.70437361E-04   0.00000000E+00
   2   1.18200000E+04   2.09714953E-03   0.00000000E+00
   3   2.69200000E+03   1.08504941E-02   0.00000000E+00
   4   7.63400000E+02   4.36749737E-02   0.00000000E+00
   5   2.49600000E+02   1.37651657E-01   0.00000000E+00
   6   9.02800000E+01   3.16640910E-01   0.00000000E+00
   7   3.52900000E+01   4.18576915E-01   0.00000000E+00
   8   1.45100000E+01   2.10209948E-01   0.00000000E+00
   9   4.05300000E+00   1.44950585E-02   0.00000000E+00
  10   1.48200000E+00  -2.03588013E-03   0.00000000E+00
  11   2.51700000E-01   6.24183908E-04   0.00000000E+00
   S 11
   1   7.88600000E+04  -7.21209338E-05   0.00000000E+00
   2   1.18200000E+04  -5.53591991E-04   0.00000000E+00
   3   2.69200000E+03  -2.92996280E-03   0.00000000E+00
   4   7.63400000E+02  -1.17363058E-02   0.00000000E+00
   5   2.49600000E+02  -4.01797968E-02   0.00000000E+00
   6   9.02800000E+01  -1.00332066E-01   0.00000000E+00
   7   3.52900000E+01  -1.95987042E-01   0.00000000E+00
   8   1.45100000E+01  -1.02100186E-01   0.00000000E+00
   9   4.05300000E+00   5.25738870E-01   0.00000000E+00
  10   1.48200000E+00   5.91618032E-01   0.00000000E+00
  11   2.51700000E-01   3.31736350E-02   0.00000000E+00
   S 11
   1   7.88600000E+04   3.38920342E-05   0.00000000E+00
   2   1.18200000E+04   2.60443163E-04   0.00000000E+00
   3   2.69200000E+03   1.37726900E-03   0.00000000E+00
   4   7.63400000E+02   5.53476510E-03   0.00000000E+00
   5   2.49600000E+02   1.89833843E-02   0.00000000E+00
   6   9.02800000E+01   4.80756033E-02   0.00000000E+00
   7   3.52900000E+01   9.59430205E-02   0.00000000E+00
   8   1.45100000E+01   5.32749453E-02   0.00000000E+00
   9   4.05300000E+00  -3.25925649E-01   0.00000000E+00
  10   1.48200000E+00  -6.35130495E-01   0.00000000E+00
  11   2.51700000E-01   1.14075717E+00   0.00000000E+00
   S  1
   1   9.24300000E-02   1.00000000E+00   0.00000000E+00
   P  7
   1   3.15900000E+02   3.92562090E-03   0.00000000E+00
   2   7.44200000E+01   2.98739534E-02   0.00000000E+00
   3   2.34800000E+01   1.27181575E-01   0.00000000E+00
   4   8.48800000E+00   3.20866241E-01   0.00000000E+00
   5   3.21700000E+00   4.55320076E-01   0.00000000E+00
   6   1.22900000E+00   2.68498769E-01   0.00000000E+00
   7   2.96400000E-01   1.88290956E-02   0.00000000E+00
   P  7
   1   3.15900000E+02  -1.68892302E-03   0.00000000E+00
   2   7.44200000E+01  -1.24033027E-02   0.00000000E+00
   3   2.34800000E+01  -5.67214851E-02   0.00000000E+00
   4   8.48800000E+00  -1.36672303E-01   0.00000000E+00
   5   3.21700000E+00  -2.35132796E-01   0.00000000E+00
   6   1.22900000E+00  -3.92726257E-02   0.00000000E+00
   7   2.96400000E-01   1.00408176E+00   0.00000000E+00
   P  1
   1   8.76800000E-02   1.00000000E+00   0.00000000E+00
   D  1
   1   2.75000000E-01   1.00000000E+00   0.00000000E+00

F     9.         0.00000000         0.00000000         1.40000000
   S  8
   1   1.47100000E+04   7.20673709E-04   0.00000000E+00
   2   2.20700000E+03   5.55048697E-03   0.00000000E+00
   3   5.02800000E+02   2.82542077E-02   0.00000000E+00
   4   1.42600000E+02   1.06395828E-01   0.00000000E+00
   5   4.64700000E+01   2.86684201E-01   0.00000000E+00
   6   1.67000000E+01   4.48437966E-01   0.00000000E+00
   7   6.35600000E+00   2.64641181E-01   0.00000000E+00
   8   1.31600000E+00   1.53260610E-02   0.00000000E+00
   S  8
   1   1.47100000E+04  -3.21193890E-04   0.00000000E+00
   2   2.20700000E+03  -2.54619157E-03   0.00000000E+00
   3   5.02800000E+02  -1.26433595E-02   0.00000000E+00
   4   1.42600000E+02  -5.19574917E-02   0.00000000E+00
   5   4.64700000E+01  -1.43447138E-01   0.00000000E+00
   6   1.67000000E+01  -3.32437623E-01   0.00000000E+00
   7   6.35600000E+00  -2.18659068E-01   0.00000000E+00
   8   1.31600000E+00   1.09559041E+00   0.00000000E+00
   S  1
   1   3.89700000E-01   1.00000000E+00   0.00000000E+00
   P  3
   1   2.26700000E+01   6.48340215E-02   0.00000000E+00
   2   4.97700000E+00   3.40535360E-01   0.00000000E+00
   3   1.34700000E+00   7.34646407E-01   0.00000000E+00
   P  1
   1   3.47100000E-01   1.00000000E+00   0.00000000E+00
   D  1
   1   1.64000000E+00   1.00000000E+00   0.00000000E+00

 $END
 $VEC
 1  1 9.98143253E-01-5.16849517E-02 9.21163789E-04 3.31286260E-05-7.08394141E-10
 1  2-1.03912709E-09-3.06252384E-02 3.38919938E-12 2.77798234E-12 7.54403074E-04
 1  3 5.05239994E-12 4.52296213E-12-1.79600607E-05-1.06508088E-04-1.07366822E-04
 1  4 2.13874910E-04 1.54346776E-06 2.76381167E-12 1.28030731E-12-1.07449623E-02
 1  5 7.75840391E-04 8.98594062E-04 2.88323884E-11 1.75132561E-11-2.73255140E-03
 1  6 2.08174882E-11 1.34747795E-11-1.92087881E-03-1.15192329E-05-1.17953978E-05
 1  7 2.33146307E-05 4.96372724E-07-7.23295165E-13-9.66831315E-14
 2  1-3.95049660E-02-4.75883635E-01 1.15957581E-03 4.69146975E-03 9.95625768E-08
 2  2 6.81412448E-08-1.87116976E-01-3.74323716E-10-2.70249329E-10-6.37805348E-04
 2  3-5.64080817E-10-4.04110533E-10-1.42428321E-04 4.94804850E-04 5.07444980E-04
 2  4-1.00224983E-03-2.27190897E-05-2.51586426E-10-1.89658351E-10-8.62006563E-01
 2  5 1.66240660E-02 2.85718019E-02-2.82219348E-09-2.08720394E-09-2.16618558E-03
 2  6-2.07886048E-09-1.52998025E-09-6.01257642E-03 9.89369796E-05 7.90843484E-05
 2  7-1.78021328E-04 3.56826779E-05 5.36383256E-11 4.27563938E-11
 3  1-2.00109558E-11 2.21796364E-08 2.10471397E-10-2.87001680E-10-8.08096171E-01
 3  2-5.89325098E-01 5.95601747E-08 3.08116419E-03 2.24655478E-03 9.66047053E-11
 3  3 4.64439069E-03 3.38646759E-03-1.94411079E-10-1.00508563E-10-1.04655159E-10
 3  4 2.05163722E-10 7.45303221E-12 2.10270242E-03 1.53288803E-03-1.65061388E-07
 3  5 3.14401588E-09 4.13119954E-09 2.34542827E-02 1.70996139E-02 1.98368769E-10
 3  6 1.72503763E-02 1.25768248E-02 1.55136529E-10-1.14726423E-10-1.20107730E-10
 3  7 2.34834153E-10 9.67259566E-12-4.56774565E-04-3.32920145E-04
 4  1 4.59377561E-02 6.26442012E-01 3.01723955E-04-6.68052538E-03 1.05590195E-07
 4  2 7.48290771E-08 6.19834466E-01-4.00165152E-10-2.90490531E-10 1.19928745E-03
 4  3-6.02961024E-10-4.36157093E-10-1.31662082E-03-1.19659346E-03-1.23993897E-03
 4  4 2.43653243E-03 7.79082451E-05-2.71204580E-10-2.00767922E-10-4.75969078E-01
 4  5 8.39663646E-03 4.96647599E-03-3.03254647E-09-2.22549536E-09 4.15922967E-03
 4  6-2.23191438E-09-1.63430708E-09 7.14656839E-03-9.51332641E-04-9.74532469E-04
 4  7 1.92586511E-03 4.16988567E-05 5.84277007E-11 4.43728257E-11
 5  1 7.25707012E-03 6.23068227E-01-1.15550989E-02-5.89759727E-03-2.08352448E-09
 5  2-1.37588029E-09-7.57009579E-01 7.32095252E-12 5.26815885E-12-6.14685845E-03
 5  3 1.15187604E-11 8.17349173E-12 2.47026192E-03 1.99520479E-03 2.02273907E-03
 5  4-4.01794386E-03-4.94895049E-05 4.87863779E-12 3.76694734E-12-1.78964419E-01
 5  5-2.90164798E-02-2.68419595E-02 5.58469959E-11 4.17658660E-11 2.49790694E-02
 5  6 4.12930551E-11 3.06293385E-11 1.38836002E-02 1.34416974E-03 1.33014409E-03
 5  7-2.67431383E-03 2.52093748E-05-1.00266525E-12-8.51676477E-13
 6  1-3.58792587E-10 7.11128897E-10-3.71781067E-12-7.44485607E-12 5.89143892E-01
 6  2-8.07847525E-01-4.89507401E-10-3.48917237E-04 4.78023347E-04 1.93699797E-12
 6  3-9.47193515E-04 1.29811410E-03 2.77329362E-12 1.45529468E-13 1.78122814E-13
 6  4-3.23652282E-13-5.96799002E-14 8.26630326E-04-1.13412364E-03 3.93195326E-09
 6  5-8.22599221E-11-1.20742215E-10 3.93560401E-03-5.40230399E-03-6.28174831E-12
 6  6 1.90687772E-03-2.61868863E-03 4.85662441E-12 1.27318784E-12 1.37486971E-12
 6  7-2.64805755E-12-1.84815398E-13-4.83915737E-04 6.63780238E-04
 7  1 4.66356124E-03-2.49170783E-02-1.82750856E-01 8.27338611E-02-7.24992112E-12
 7  2-2.32732511E-11 8.56597635E-02 4.67593885E-13 3.13530719E-13-1.86968136E-01
 7  3 2.52313983E-13 2.00918931E-13 1.64958830E-02 3.38392974E-02 3.40474845E-02
 7  4-6.78867819E-02-3.74190937E-04 3.27346145E-13 1.91464104E-13 3.97678023E-03
 7  5-9.65170426E-02-3.87894078E-02 2.75390111E-12 1.66354553E-12 6.13806834E-01
 7  6 1.90229638E-12 1.18088248E-12 3.76159825E-01 1.52005751E-02 1.54833092E-02
 7  7-3.06838843E-02-5.08180152E-04-9.79543995E-14-4.95725879E-14
 8  1-2.02970947E-03 9.21798694E-03-7.30836492E-03 3.19566031E-02-2.68821911E-11
 8  2-3.29887901E-11-6.67214662E-02 2.55637857E-12 1.88323041E-12-5.05729841E-03
 8  3 1.22736946E-12 9.20175731E-13 1.02090355E-02-4.01730353E-03-4.25726723E-03
 8  4 8.27457076E-03 4.31305424E-04 1.72451872E-12 1.24481300E-12 2.44352161E-02
 8  5 4.80508177E-01 5.49573710E-01 1.41608157E-11 1.03030754E-11 1.77239793E-01
 8  6 9.78574337E-12 7.13638902E-12 1.14300326E-01-1.64843562E-03-1.27161577E-03
 8  7 2.92005139E-03-6.77287606E-04-5.08701070E-13-3.62083314E-13
 9  1 1.06196817E-12 6.38256960E-13 2.17671129E-12 3.85482233E-13 2.50768541E-02
 9  2 1.82849061E-02 1.04644022E-12 9.25728689E-02 6.74952331E-02 2.77956228E-13
 9  3 3.93709751E-02 2.87055409E-02-7.08078917E-13 5.51318658E-14 6.70248022E-14
 9  4-1.22156668E-13-2.14635295E-14 6.25091157E-02 4.55756447E-02-2.00289668E-11
 9  5-1.19074395E-11-1.39748734E-11 5.08317755E-01 3.70616294E-01-6.83586232E-12
 9  6 3.51460927E-01 2.56251435E-01-4.34733140E-12-1.80618794E-14-1.65060334E-14
 9  7 3.45679128E-14-2.95441683E-15-1.87513515E-02-1.36716811E-02
10  1 2.94274007E-18-2.28016179E-17 6.40022903E-17 1.37774975E-16-5.44201926E-03
10  2 7.46396003E-03 2.05810841E-16-3.01054537E-01 4.12909053E-01-1.73822929E-16
10  3-3.69401874E-01 5.06650322E-01-5.23285646E-17 3.87116441E-16-2.87846445E-16
10  4-9.92699961E-17-3.90092373E-16 3.65058405E-02-5.00693070E-02-1.05229489E-16
10  5-7.76395947E-17 5.51864102E-17 1.05921795E-01-1.45276230E-01 2.33481395E-17
10  6 1.19279905E-01-1.63597443E-01-6.09459789E-17 3.93692884E-16-3.98219404E-16
10  7 4.52651977E-18-1.45888032E-16 1.03550978E-03-1.42024552E-03
11  1 3.17675527E-14 7.83853461E-14-4.32501942E-14 2.55698303E-14 1.46498236E-02
11  2-2.00930427E-02 1.94213695E-13-6.19023767E-02 8.49020573E-02-5.27781367E-14
11  3-2.21372550E-02 3.03623226E-02 1.85271824E-15 9.43744935E-15 9.67307035E-15
11  4-1.91105197E-14-1.20275038E-16-3.96908485E-02 5.44378998E-02 2.18664067E-13
11  5-6.83347871E-14-6.33390539E-14-3.78221355E-01 5.18748399E-01 1.54679733E-13
11  6-2.56670256E-01 3.52035367E-01 9.69478863E-14 4.23322426E-15 4.21242845E-15
11  7-8.44565271E-15-1.21112874E-16 1.30947783E-02-1.79601090E-02
12  1-7.08797705E-15-5.51638898E-14-8.29047768E-14 4.99277373E-14-6.76583861E-02
12  2 9.27965001E-02-1.62073754E-14-2.99657913E-01 4.10995274E-01-3.10845769E-14
12  3 2.07869130E-01-2.85100198E-01 1.56725949E-14 3.26369044E-14-1.00187060E-14
12  4-2.26181984E-14-9.40082958E-15 2.49195586E-01-3.41781786E-01-1.70926257E-14
12  5-3.79422442E-14 6.45998185E-14-4.48601174E-01 6.15275778E-01 2.03172192E-14
12  6 3.85722884E-01-5.29036921E-01-6.02850810E-14-1.42592019E-14 9.47456291E-15
12  7 4.78463899E-15 7.39444949E-15-5.48505992E-02 7.52299425E-02
13  1-1.59227088E-03-2.49063734E-03 4.71523141E-01 5.83541738E-01-8.65731636E-14
13  2-7.62776764E-14 7.82555368E-03-2.49097934E-13-1.83074254E-13-2.14817745E-01
13  3-1.05889334E-13-7.78338219E-14-1.30754345E-01 2.71518276E-02 2.87696957E-02
13  4-5.59215233E-02-2.90792019E-03-1.68645180E-13-1.22806614E-13 9.52395678E-04
13  5-5.52127817E-02-1.15587015E-01-1.36786052E-12-1.00627363E-12 7.90348002E-02
13  6-9.45783853E-13-6.96118521E-13 7.14857866E-02 1.84059165E-03 1.68825515E-03
13  7-3.52884680E-03 2.73806241E-04 5.05534414E-14 3.71610744E-14
14  1-7.43995073E-03-6.04623300E-02-4.47555015E-02 7.31886231E-02-1.48236651E-13
14  2-1.09387595E-13-2.96017782E-02-1.62650458E-12-1.19120898E-12 1.15501119E-01
14  3-1.04151362E-12-7.53487816E-13 2.64036655E-01 9.86490883E-02 4.81867268E-01
14  4-5.80516356E-01-6.88787830E-01-4.82006451E-13-3.32889258E-13-1.51101089E-03
14  5-4.04105984E-02 1.38303115E-01-2.06854476E-13-1.62111764E-13 6.99000394E-02
14  6 1.50302681E-12 1.09841647E-12-9.14263450E-02-1.24811402E-04-2.02449764E-03
14  7 2.14930904E-03 3.41445380E-03-1.85627759E-14-1.49045851E-14
15  1 5.92083802E-13 4.78986933E-12 9.59372401E-12 2.14278786E-12 5.50814671E-02
15  2 4.01597964E-02 2.57269198E-12 6.02169979E-01 4.39043848E-01 1.24950937E-11
15  3 3.84128116E-01 2.80071657E-01 7.43457612E-12-5.40610088E-12-5.27182802E-12
15  4 1.06779289E-11-1.55440974E-13 1.77873388E-01 1.29689997E-01-6.63707639E-12
15  5-1.90617071E-11-2.64608986E-13 7.82858934E-02 5.70760968E-02-4.90984550E-13
15  6-5.57425307E-01-4.06419904E-01 1.27951596E-11 3.90083287E-14-5.18467532E-12
15  7 5.14566699E-12 9.65457427E-12 7.18478355E-03 5.23815061E-03
16  1-1.35524855E-01-1.14749754E+00-1.85222272E+00-3.91737631E-01 1.44189893E-13
16  2 1.02220571E-13-7.97555965E-01 8.62565195E-13 6.11505339E-13-2.34354434E+00
16  3 3.80077649E-13 2.86211764E-13-2.16389234E-01 7.40304708E-01 7.23460172E-01
16  4-1.46376488E+00 3.02759958E-02 1.05257268E-12 7.55309393E-13-7.72197835E-01
16  5-1.55561362E+00 4.17807922E+00 8.07737952E-13 5.76757517E-13 1.49273924E-01
16  6-1.85339919E-12-1.32879796E-12-2.15780032E+00-1.56678786E-01-1.55659356E-01
16  7 3.12338142E-01-1.83230050E-03 2.26801410E-13 1.62069118E-13
17  1 1.40779558E-01 1.11070730E+00 1.85573222E+00-1.91716493E+00-4.60198803E-13
17  2-3.29645158E-13 1.30556189E-01-2.69060309E-12-1.93116844E-12 3.93774408E-01
17  3-1.33780653E-12-9.92702433E-13-6.69520006E-01 1.12915626E-01 1.18518565E-01
17  4-2.31434191E-01-1.00705996E-02-3.72019150E-12-2.70183332E-12-2.75464996E-01
17  5-6.42545518E-01 9.78024745E-01-2.86810911E-12-2.06422651E-12-1.29904933E-01
17  6 6.41706855E-12 4.63956717E-12 6.22755244E-01 6.87385054E-02 6.83622386E-02
17  7-1.37100744E-01 6.76293406E-04-8.18185629E-13-5.91031395E-13
18  1-3.27805292E-02-2.64154066E-01-5.83353737E-01 7.55560705E-01-5.39632553E-13
18  2-3.96129448E-13 2.75844634E-01-2.75979323E-12-2.02774073E-12 1.11293817E+00
18  3-2.84846651E-12-2.06932818E-12-1.03105026E+00-2.37639572E-02-1.61944533E-02
18  4 3.99584105E-02-1.36052579E-02-6.66166352E-12-4.86712782E-12-2.52662902E-01
18  5-6.39050017E-01 4.78343187E-01-5.20154258E-12-3.80590604E-12-2.15544047E-01
18  6 1.09062866E-11 7.97416374E-12 6.56941329E-01 4.32790377E-02 4.26864925E-02
18  7-8.59655302E-02 1.06502742E-03-1.48310260E-12-1.08473918E-12
19  1 1.58742744E-15 1.17693611E-14 2.01988604E-14-1.18869956E-14-5.54282993E-02
19  2 7.60222305E-02 2.26308145E-15-3.32665504E-01 4.56264774E-01 7.39200150E-15
19  3 5.50600635E-01-7.55171387E-01 2.87436424E-15-6.79246577E-16-2.24229068E-15
19  4 2.92153726E-15-3.71221914E-15 4.44635777E-01-6.09836344E-01 2.89373247E-15
19  5 4.15173547E-15-1.30010659E-14 3.37851971E-01-4.63377930E-01 1.90276840E-15
19  6-6.50836316E-01 8.92648723E-01 7.35173742E-15 2.63519904E-16 1.74552771E-15
19  7-2.00904761E-15 7.64037886E-16 6.07937556E-02-8.33811523E-02
20  1 6.51226700E-14 4.93499438E-13-5.82822240E-14-1.05317323E-12-1.56946622E-01
20  2-1.14430811E-01 1.29313571E-12-8.35822386E-01-6.09403569E-01 4.64710882E-12
20  3 9.76382280E-01 7.11886759E-01-7.84387173E-12 1.86878232E-12 1.68914234E-12
20  4-3.55792466E-12 3.16539460E-13 2.45293260E-01 1.78845305E-01 6.40769999E-13
20  5 2.02493639E-12 1.78070827E-12 2.49762391E-01 1.82103233E-01-5.11698494E-13
20  6-4.24329561E-01-3.09381492E-01 1.64881928E-12 2.97282665E-13 8.33362325E-13
20  7-1.13064499E-12-9.89543055E-13-1.82161248E-02-1.32814711E-02
21  1-4.05995632E-15-3.05932055E-14-6.39963087E-14 3.08830869E-14-1.12074838E-01
21  2 1.53715477E-01-9.72499011E-15-5.64495984E-01 7.74229888E-01-4.64028658E-14
21  3 3.84764632E-01-5.27722037E-01-8.20227046E-15 1.63671769E-14 3.41972423E-14
21  4-5.05644192E-14 1.37542977E-14-5.15840572E-01 7.07497960E-01 1.67953701E-15
21  5 1.57056439E-14 4.69215586E-14-1.16599218E-02 1.59926901E-02-4.88982405E-14
21  6 3.38706264E-01-4.64550485E-01 5.73615875E-15 1.75351797E-15-1.19460635E-14
21  7 1.01925455E-14-5.12100647E-15-1.64870101E-01 2.26126662E-01
22  1 1.42556190E-02 1.04548370E-01 2.93911948E-02 2.01385782E-01-8.42774473E-12
22  2-6.15195041E-12-1.14076422E-02-3.03221460E-11-2.21447796E-11-3.91876599E-01
22  3 2.11340606E-11 1.54330350E-11 5.95320290E-01-5.18575592E-04-9.49406371E-03
22  4 1.00126393E-02 1.61323427E-02-5.48274434E-11-4.00183533E-11-9.30399989E-02
22  5-2.70633185E-01 8.06153070E-02-3.85711701E-11-2.81174055E-11-8.20877537E-01
22  6 7.09764317E-11 5.17701908E-11 8.04202771E-01-2.59203476E-02-2.46554698E-02
22  7 5.05758174E-02-2.27346308E-03-1.86505487E-11-1.36117572E-11
23  1-3.64036881E-03-1.45901042E-02 1.55189236E-01 1.91870123E-01-3.98104260E-11
23  2-2.90176928E-11-8.93058884E-03-1.30882405E-10-9.53853669E-11 1.77470992E-01
23  3 1.06931128E-10 7.79368067E-11 5.22017517E-01-5.19023722E-01-4.28022919E-01
23  4 9.47046641E-01-1.63562821E-01-2.79438590E-10-2.03680635E-10-2.97069803E-01
23  5-8.28311642E-01-1.25212717E-01-1.92972039E-10-1.40711878E-10 4.19097427E-01
23  6 3.48660921E-10 2.54191549E-10-1.24777085E-01 2.52041219E-02 1.34272881E-02
23  7-3.86314100E-02 2.11674192E-02-9.77982191E-11-7.12862301E-11
24  1 1.57970718E-13 6.32075957E-12 6.74876718E-11 8.77166285E-11 9.84437020E-02
24  2 7.17755514E-02-7.26290143E-13 3.05482750E-01 2.22727644E-01 4.96431464E-11
24  3-2.76873837E-01-2.01869108E-01 2.36829179E-10-2.04039009E-10-1.67810778E-10
24  4 3.71849787E-10-6.51781786E-11 7.19677475E-01 5.24721351E-01-1.24542298E-10
24  5-3.47471719E-10-3.94122716E-11 4.90503002E-01 3.57627658E-01 9.65951185E-11
24  6-8.77734547E-01-6.39960342E-01 2.28122750E-11 9.56847031E-12 1.09631747E-11
24  7-2.05316450E-11-2.81776301E-12 2.56660225E-01 1.87132127E-01
25  1-6.73460104E-14-6.87845630E-13-1.30368754E-12-9.98168817E-13-2.06137202E-02
25  2-1.50295582E-02-4.50273717E-13-1.66965891E-02-1.21734374E-02-7.58173874E-13
25  3 1.29177379E-01 9.41839077E-02-2.33177244E-12 2.65382653E-12 2.09511412E-12
25  4-4.74894065E-12 9.44021513E-13 4.51303656E-01 3.29048200E-01 1.70536382E-12
25  5 4.65232164E-12 2.86582550E-14-5.05879452E-01-3.68839675E-01 6.13224588E-13
25  6 2.79474141E-01 2.03766180E-01-2.16040163E-12-7.96234020E-13-5.31185521E-12
25  7 6.10808923E-12 8.39236676E-12 4.87521943E-01 3.55455315E-01
26  1-8.08850761E-14-6.78408929E-13 2.13802590E-13 1.63572032E-13 5.04182554E-15
26  2 1.35014439E-15-3.42257485E-13-5.05851163E-15-1.20386323E-14 2.43384449E-13
26  3-3.87003382E-14-1.84339834E-14-1.64538966E-12 5.99943148E-01-5.99943148E-01
26  4 1.67199221E-12-2.22525341E-01-1.45290499E-14 1.90595005E-14-1.01653876E-13
26  5-4.64035780E-13-3.35367638E-13 7.44519282E-14 2.33746856E-14-1.70841875E-12
26  6-5.62291873E-14-2.02722829E-14-3.11473421E-12-5.99943148E-01 5.99943148E-01
26  7 8.89482446E-13 2.22525341E-01-5.17546333E-14 2.76371214E-14
27  1 6.50819468E-04 2.38409740E-05-2.17337712E-02-3.48343427E-02 6.66570483E-13
27  2 4.86335071E-13-7.62166674E-03-2.74251681E-12-1.99819971E-12-6.36905641E-02
27  3-7.05993028E-12-5.14839432E-12-9.29308097E-02-7.21179255E-02 2.47462857E-02
27  4 4.73716398E-02-1.74101579E-01 2.40821330E-12 1.75534538E-12 1.43280150E-02
27  5 5.24778506E-02 1.69521804E-02 1.00548803E-11 7.33347066E-12-3.88192973E-02
27  6-7.94482520E-12-5.79530990E-12 1.29609966E-02 1.50543322E-01-3.57672435E-01
27  7 2.07129113E-01 9.13455697E-01-1.51384495E-12-1.10749608E-12
28  1 2.71423907E-03 4.30443342E-03 2.38648351E-02-2.44063160E-02 2.63248631E-13
28  2 2.31184943E-13-1.77822197E-02-1.42976549E-12-8.40225170E-13 4.91877210E-02
28  3-3.07254000E-12-2.44253188E-12-4.21275171E-02-2.02979108E-02-1.16127331E-02
28  4 3.19106439E-02-1.56105451E-02 1.17184046E-12 9.67410334E-13-2.65096246E-03
28  5-1.33864688E-02-1.95341533E-02 4.23195735E-12 3.24354727E-12 4.25667447E-02
28  6-3.22676519E-12-2.65922730E-12 3.99848266E-02-5.41278144E-01-4.27936914E-01
28  7 9.69215058E-01-2.03717005E-01 3.29324688E-13-1.41235846E-12
29  1 4.00177768E-15 1.25276196E-14 4.35628321E-14-3.86063500E-14 1.35981008E-02
29  2-1.86503476E-02-2.23717079E-14 6.98464643E-02-9.57972067E-02 7.39817933E-14
29  3-6.98215071E-02 9.57632265E-02-5.56637835E-14-4.60117526E-14 7.06775347E-15
29  4 3.89439991E-14-9.16733973E-15 4.05372812E-02-5.55985161E-02-1.77316740E-15
29  5-1.45450071E-14-3.42532294E-14 5.35741551E-02-7.34791224E-02 5.72613608E-14
29  6-1.05620838E-01 1.44863209E-01 6.24921655E-14-7.02839969E-13-6.31963341E-13
29  7 1.33480331E-12-2.91165813E-13-5.71279290E-01 7.83533763E-01
30  1-7.02075241E-14-5.84355516E-13 2.94327204E-13 1.31967702E-13-4.28663790E-15
30  2-2.15493850E-15-3.02859873E-13 2.64962142E-14 2.01091692E-14-1.83581153E-13
30  3 5.26231248E-14 3.66987670E-14-1.77791962E-12 5.67474372E-01-5.67474372E-01
30  4 1.35314781E-12-2.10482324E-01-2.67158650E-14-9.27456325E-15-5.06721333E-14
30  5-2.48806291E-13-3.33243589E-13-6.07664259E-14-4.91379911E-14-2.10078024E-12
30  6 4.62795740E-14 3.31240174E-14-2.88011865E-12 5.67474372E-01-5.67474372E-01
30  7-8.22927195E-13-2.10482324E-01 6.76971475E-15-1.54416310E-14
31  1-3.51549310E-15-2.22886150E-14-5.68988213E-15 3.91695380E-14 3.65068106E-03
31  2 2.66173514E-03-3.15306276E-16 4.41297787E-03 3.21753486E-03 7.78463311E-14
31  3 3.24030780E-02 2.36252797E-02 1.13041795E-13 1.96787016E-13 3.16022418E-14
31  4-2.28389258E-13 2.77796986E-13-4.24852848E-01-3.09762828E-01 2.12543371E-14
31  5 3.48966908E-14-1.86219074E-14 2.55379045E-01 1.86198438E-01 7.50082385E-14
31  6-3.26507384E-02-2.38058593E-02-8.33504129E-14 6.64709448E-14 1.97145592E-13
31  7-2.63616537E-13-2.58676829E-13 6.11316640E-01 4.45714721E-01
32  1-1.18555206E-03-5.48443101E-03 9.58926121E-02 1.24985849E-01 2.02241230E-13
32  2 1.46699487E-13 9.68234641E-03-3.77020289E-12-2.75310957E-12 3.16271997E-01
32  3-5.41928988E-12-3.94823293E-12 3.68873444E-01 3.28792817E-01-1.23961176E-02
32  4-3.16396699E-01 6.13245400E-01 2.77809721E-12 2.04172727E-12-4.64844779E-02
32  5-1.93225892E-01-5.64211316E-02 4.79924890E-12 3.48324538E-12 1.88289172E-01
32  6-2.80015183E-12-2.03265044E-12-2.06063831E-02 2.31427283E-02-7.77821876E-02
32  7 5.46394593E-02 1.81400199E-01 1.56362737E-13 1.02785246E-13
 $END
