 $CONTRL SCFTYP=GVB RUNTYP=ENERGY ICHARG=0 MULT=2 NOSYM=1 ICUT=11
  MAXIT=500 ISPHER=1 $END
 $SYSTEM MWORDS=312 $END
 $SCF NCO=9 NPAIR=2 NSETO=1 NO(1)=1 DIRSCF=.T. $END
 $GUESS GUESS=MOREAD NORB=32 $END
 $DATA
GAMESS inp file produced by MOKIT,nif=32,nbf=32
C1   1
Si   14.         0.00000000         0.00000000         0.00000000
   S 11
   1   7.88600000E+04   2.70437361E-04   0.00000000E+00
   2   1.18200000E+04   2.09714953E-03   0.00000000E+00
   3   2.69200000E+03   1.08504941E-02   0.00000000E+00
   4   7.63400000E+02   4.36749737E-02   0.00000000E+00
   5   2.49600000E+02   1.37651657E-01   0.00000000E+00
   6   9.02800000E+01   3.16640910E-01   0.00000000E+00
   7   3.52900000E+01   4.18576915E-01   0.00000000E+00
   8   1.45100000E+01   2.10209948E-01   0.00000000E+00
   9   4.05300000E+00   1.44950585E-02   0.00000000E+00
  10   1.48200000E+00  -2.03588013E-03   0.00000000E+00
  11   2.51700000E-01   6.24183908E-04   0.00000000E+00
   S 11
   1   7.88600000E+04  -7.21209338E-05   0.00000000E+00
   2   1.18200000E+04  -5.53591991E-04   0.00000000E+00
   3   2.69200000E+03  -2.92996280E-03   0.00000000E+00
   4   7.63400000E+02  -1.17363058E-02   0.00000000E+00
   5   2.49600000E+02  -4.01797968E-02   0.00000000E+00
   6   9.02800000E+01  -1.00332066E-01   0.00000000E+00
   7   3.52900000E+01  -1.95987042E-01   0.00000000E+00
   8   1.45100000E+01  -1.02100186E-01   0.00000000E+00
   9   4.05300000E+00   5.25738870E-01   0.00000000E+00
  10   1.48200000E+00   5.91618032E-01   0.00000000E+00
  11   2.51700000E-01   3.31736350E-02   0.00000000E+00
   S 11
   1   7.88600000E+04   3.38920342E-05   0.00000000E+00
   2   1.18200000E+04   2.60443163E-04   0.00000000E+00
   3   2.69200000E+03   1.37726900E-03   0.00000000E+00
   4   7.63400000E+02   5.53476510E-03   0.00000000E+00
   5   2.49600000E+02   1.89833843E-02   0.00000000E+00
   6   9.02800000E+01   4.80756033E-02   0.00000000E+00
   7   3.52900000E+01   9.59430205E-02   0.00000000E+00
   8   1.45100000E+01   5.32749453E-02   0.00000000E+00
   9   4.05300000E+00  -3.25925649E-01   0.00000000E+00
  10   1.48200000E+00  -6.35130495E-01   0.00000000E+00
  11   2.51700000E-01   1.14075717E+00   0.00000000E+00
   S  1
   1   9.24300000E-02   1.00000000E+00   0.00000000E+00
   P  7
   1   3.15900000E+02   3.92562090E-03   0.00000000E+00
   2   7.44200000E+01   2.98739534E-02   0.00000000E+00
   3   2.34800000E+01   1.27181575E-01   0.00000000E+00
   4   8.48800000E+00   3.20866241E-01   0.00000000E+00
   5   3.21700000E+00   4.55320076E-01   0.00000000E+00
   6   1.22900000E+00   2.68498769E-01   0.00000000E+00
   7   2.96400000E-01   1.88290956E-02   0.00000000E+00
   P  7
   1   3.15900000E+02  -1.68892302E-03   0.00000000E+00
   2   7.44200000E+01  -1.24033027E-02   0.00000000E+00
   3   2.34800000E+01  -5.67214851E-02   0.00000000E+00
   4   8.48800000E+00  -1.36672303E-01   0.00000000E+00
   5   3.21700000E+00  -2.35132796E-01   0.00000000E+00
   6   1.22900000E+00  -3.92726257E-02   0.00000000E+00
   7   2.96400000E-01   1.00408176E+00   0.00000000E+00
   P  1
   1   8.76800000E-02   1.00000000E+00   0.00000000E+00
   D  1
   1   2.75000000E-01   1.00000000E+00   0.00000000E+00

F     9.         0.00000000         0.00000000         2.47000000
   S  8
   1   1.47100000E+04   7.20673709E-04   0.00000000E+00
   2   2.20700000E+03   5.55048697E-03   0.00000000E+00
   3   5.02800000E+02   2.82542077E-02   0.00000000E+00
   4   1.42600000E+02   1.06395828E-01   0.00000000E+00
   5   4.64700000E+01   2.86684201E-01   0.00000000E+00
   6   1.67000000E+01   4.48437966E-01   0.00000000E+00
   7   6.35600000E+00   2.64641181E-01   0.00000000E+00
   8   1.31600000E+00   1.53260610E-02   0.00000000E+00
   S  8
   1   1.47100000E+04  -3.21193890E-04   0.00000000E+00
   2   2.20700000E+03  -2.54619157E-03   0.00000000E+00
   3   5.02800000E+02  -1.26433595E-02   0.00000000E+00
   4   1.42600000E+02  -5.19574917E-02   0.00000000E+00
   5   4.64700000E+01  -1.43447138E-01   0.00000000E+00
   6   1.67000000E+01  -3.32437623E-01   0.00000000E+00
   7   6.35600000E+00  -2.18659068E-01   0.00000000E+00
   8   1.31600000E+00   1.09559041E+00   0.00000000E+00
   S  1
   1   3.89700000E-01   1.00000000E+00   0.00000000E+00
   P  3
   1   2.26700000E+01   6.48340215E-02   0.00000000E+00
   2   4.97700000E+00   3.40535360E-01   0.00000000E+00
   3   1.34700000E+00   7.34646407E-01   0.00000000E+00
   P  1
   1   3.47100000E-01   1.00000000E+00   0.00000000E+00
   D  1
   1   1.64000000E+00   1.00000000E+00   0.00000000E+00

 $END
 $VEC
 1  1 7.17674794E-01 5.95487493E-01-2.63600535E-03-8.35466615E-03-6.16043773E-08
 1  2 6.77758511E-08 2.85306022E-02-7.78039993E-11 8.64209146E-11 3.81874091E-04
 1  3 2.25055251E-10-2.47907717E-10-1.55996192E-04-8.22652544E-07 1.27089940E-05
 1  4-1.18863415E-05-7.90145262E-05 8.83469024E-12-9.60988593E-12-3.62451702E-01
 1  5 7.49538446E-03 1.02938319E-02 2.38096506E-10-2.58938721E-10 6.34650525E-04
 1  6 1.66680715E-10-1.81142644E-10 3.90382360E-04-1.63689457E-05-1.57923623E-05
 1  7 3.21613080E-05-3.36680856E-06 7.86623993E-14-9.40364877E-14
 2  1-6.93956411E-01 5.69286427E-01-2.62186804E-03-7.68878404E-03-6.17273060E-08
 2  2 6.82349142E-08 1.31751018E-02-7.85565934E-11 8.64561932E-11 4.08755031E-04
 2  3 2.25756540E-10-2.49383019E-10-1.05266980E-04-8.38247727E-06 3.74742140E-06
 2  4 4.63505587E-06-7.08293841E-05 8.79041868E-12-9.74535988E-12-4.42547032E-01
 2  5 9.13286588E-03 1.22984275E-02 2.36885866E-10-2.62604579E-10 7.47537463E-04
 2  6 1.65757393E-10-1.83792681E-10 3.92186702E-04-2.55883411E-05-2.49063814E-05
 2  7 5.04947225E-05-3.98212615E-06 8.31240048E-14-9.15687340E-14
 3  1-4.21875297E-12-1.26007981E-07 5.58923795E-10 1.72589822E-09-6.71343621E-01
 3  2 7.41756486E-01-9.61655070E-10-8.53706211E-04 9.40545523E-04-8.17636678E-11
 3  3 2.45507870E-03-2.71078256E-03 1.85205194E-11-1.63159054E-12-4.14969397E-12
 3  4 5.78128451E-12 1.47042429E-11 9.57512114E-05-1.05591414E-04 4.65483909E-08
 3  5-1.03029943E-09-1.45630488E-09 2.58068919E-03-2.84504850E-03-1.02436084E-10
 3  6 1.80596135E-03-1.99083144E-03-7.87399928E-11 2.34330326E-13 1.52077688E-13
 3  7-3.86408014E-13 4.83368379E-13 9.00409446E-07-1.01133970E-06
 4  1 5.81770093E-02-5.58548173E-01 2.11349854E-03 7.51669276E-03 2.17712677E-08
 4  2-2.40421354E-08-1.69835505E-01 2.76806292E-11-3.05226823E-11 2.85304749E-05
 4  3-7.95361629E-11 8.78146833E-11 4.04928741E-04-4.77266714E-05-5.39836386E-05
 4  4 1.01710310E-04 3.65359301E-05-3.06577672E-12 3.39145788E-12-8.10805495E-01
 4  5 1.50547211E-02 1.87336943E-02-8.26075774E-11 9.13908733E-11 8.28773683E-04
 4  6-5.77646136E-11 6.39153989E-11-2.96040936E-04-1.09295485E-04-1.08368465E-04
 4  7 2.17663950E-04-5.41309712E-06-3.30880930E-14 3.61193437E-14
 5  1 1.44289211E-03 1.20827649E-01-9.22352297E-04-1.19026968E-03-6.03922076E-09
 5  2 5.99701794E-09-9.85054367E-01-6.49038807E-12 8.67967438E-12 1.19235672E-03
 5  3 2.12775132E-11-2.26514528E-11 2.18493388E-03 1.09472631E-04 1.04693022E-04
 5  4-2.14165653E-04 2.79092772E-05 7.58225152E-13-9.48244474E-13 1.23406886E-01
 5  5-9.05829614E-04-1.14586963E-03 2.00499228E-11-2.59265905E-11 2.87762296E-04
 5  6 1.39623118E-11-1.82083404E-11-3.14784951E-04 8.78331069E-06 8.47124501E-06
 5  7-1.72545557E-05 1.82222633E-06 1.65437752E-14-2.87903463E-16
 6  1-1.55280937E-10-1.62539252E-10 9.06589008E-13 2.07682926E-12-7.41311066E-01
 6  2-6.70939655E-01 4.39978215E-10 1.68761002E-03 1.52985366E-03-6.05503098E-13
 6  3 9.64027353E-04 8.70890216E-04-9.59093385E-13-5.21325184E-14-5.24600916E-14
 6  4 1.04592610E-13 3.56443165E-15-9.15770492E-05-8.30669461E-05-2.23391453E-12
 6  5-4.94133049E-13-7.81366306E-13-3.30023669E-03-2.99266070E-03-2.20771129E-13
 6  6-2.43426517E-03-2.20729595E-03 7.70863950E-14 3.70639246E-16 2.11378773E-16
 6  7-5.82018019E-16-4.46099148E-16 1.70623794E-05 1.54575887E-05
 7  1-4.66314675E-12-1.74798794E-12-1.65317191E-14 6.38941716E-15-6.84963028E-03
 7  2-6.20577648E-03-8.87313154E-13 4.13826250E-03 3.74927426E-03 2.07368485E-13
 7  3 2.20132699E-02 1.99440670E-02 2.06939067E-13-1.82525533E-14-1.99215812E-14
 7  4 3.81741345E-14 5.52674918E-16 1.45929938E-02 1.32212817E-02 1.37735111E-12
 7  5-7.85915106E-14-1.20807560E-13 4.95140843E-01 4.48598596E-01-4.55630716E-13
 7  6 3.55919275E-01 3.22463577E-01-3.43851089E-13-2.90201959E-15-2.79837324E-15
 7  7 5.70039283E-15-2.67082451E-17-2.37575110E-03-2.15243526E-03
 8  1-1.73781944E-13-6.95002510E-13-9.87059883E-15 1.62105414E-15-1.90251643E-03
 8  2 2.09991687E-03-3.98963880E-13-6.44942852E-03 7.11855895E-03 5.77227260E-14
 8  3-2.62265424E-02 2.89475549E-02 5.85427560E-14-6.68678263E-15-5.34671537E-15
 8  4 1.20334980E-14 1.68667415E-16-1.41378599E-02 1.56046674E-02-1.95501639E-12
 8  5 1.05508275E-13 1.20150806E-13-4.47125859E-01 4.93515309E-01-1.21634488E-13
 8  6-3.22991651E-01 3.56502138E-01-9.35904805E-14-9.97848377E-16-1.00552045E-15
 8  7 2.00336883E-15-8.85345901E-17 2.26215783E-03-2.49685743E-03
 9  1-4.96893430E-04-8.00047991E-03-2.26568515E-02-3.56373035E-03 4.29391165E-13
 9  2 1.86909870E-13 1.19371776E-03 1.11736457E-15-3.78328126E-16-3.97337918E-02
 9  3 6.61755163E-15 1.46574257E-15-3.16285785E-02 1.09256968E-05 5.88916217E-05
 9  4-6.98173185E-05-2.80084524E-04 4.70680827E-15 1.46656031E-15 3.29950755E-02
 9  5 4.94962058E-01 5.76635310E-01 1.56694938E-13 5.08638437E-14 1.17132743E-01
 9  6 1.12890932E-13 3.68590465E-14 8.72157659E-02 8.27035987E-04 8.37579903E-04
 9  7-1.66461589E-03-6.15684543E-05-8.50388600E-16-6.23001099E-17
10  1-1.84064897E-17 1.04115006E-16-4.95038224E-17-3.17319505E-16 6.56515741E-03
10  2 5.94804543E-03-4.90901984E-17 4.06635150E-01 3.68412238E-01 6.67653980E-16
10  3 4.16474969E-01 3.77327133E-01 9.78581683E-16 5.57066386E-16-3.26896598E-16
10  4-2.30169788E-16-3.22586238E-16-1.66559840E-02-1.50903538E-02-2.97416526E-16
10  5-5.40686380E-17-2.80178174E-16-3.41093404E-02-3.09031288E-02 7.01517239E-17
10  6-3.58081516E-02-3.24422550E-02 1.88290635E-16 3.05114254E-17-3.94224833E-17
10  7 8.91105784E-18-9.55462366E-18-1.25175172E-03-1.13408950E-03
11  1 2.51518189E-03 2.84460171E-02 5.79489945E-01 4.96063363E-01 1.64736647E-13
11  2-1.17750038E-13 1.49414802E-04 4.33041706E-16 5.69425606E-16-7.02330876E-02
11  3 5.90519712E-16 3.19331663E-15-8.24503248E-02 6.39007767E-03 6.27108093E-03
11  4-1.26611586E-02 6.94850543E-04 8.80567861E-16 1.73547957E-15-1.75204514E-04
11  5-5.27253465E-03-1.68316781E-02 2.52505594E-14 4.56860473E-14 1.57626412E-02
11  6 1.80207240E-14 3.29307169E-14 1.73401190E-02-7.15037522E-04-7.08692578E-04
11  7 1.42373010E-03-3.70496528E-05-2.24926048E-16-2.83671188E-16
12  1-5.93418450E-03-4.76638028E-02-1.02222597E-01 6.75853066E-02-2.89178199E-15
12  2 5.69208264E-15-9.21267277E-03-2.53328909E-15 9.00175862E-15-1.25075921E-01
12  3-2.45698626E-14 1.45590902E-14-6.08935621E-02-3.34173484E-02-1.94822616E-01
12  4 2.28239964E-01 9.42484030E-01 2.40362174E-14 4.87115838E-14-1.52653123E-02
12  5-4.03119637E-02 3.41692952E-02-3.55819448E-14-7.62173106E-14 7.31089598E-02
12  6 3.93317048E-14 7.75684791E-14-1.32350745E-01-2.68313837E-03-2.65231027E-03
12  7 5.33544864E-03-1.80012663E-04 7.20697323E-15 1.40148401E-14
13  1 2.60073550E-04 3.02061283E-03-1.72229263E-02-2.11703173E-02-1.06284529E-13
13  2-1.89981037E-14-9.67714048E-04 1.57577986E-15 5.44462279E-15-2.42726450E-01
13  3 1.10181815E-14 2.41374575E-14-2.39734103E-01 2.32480633E-02 2.33341192E-02
13  4-4.65821825E-02-5.02501174E-04 7.68543098E-15 1.50886833E-14-4.26971034E-03
13  5-7.20670857E-02-5.34246755E-02 2.83599450E-13 4.82196731E-13 5.32806516E-01
13  6 2.03452203E-13 3.47258365E-13 4.01821807E-01 3.50316239E-03 3.48984979E-03
13  7-6.99301218E-03 7.77354653E-05-1.29795107E-15-2.32324709E-15
14  1 2.40699623E-03 1.85779111E-02-3.89537033E-02-1.08300096E-01 1.68148860E-14
14  2 1.69984734E-15-6.29382503E-03-1.55870989E-14 1.01346974E-13-4.50769434E-01
14  3-2.06766522E-13 8.58752929E-14-4.86556964E-01 4.49295814E-02 6.29911446E-02
14  4-1.07920726E-01-1.05465796E-01 2.05792563E-13 3.55271524E-13 6.26857812E-02
14  5 2.15586364E-01-4.05518297E-03-3.15114941E-13-6.47788996E-13-5.02691828E-01
14  6 3.65264200E-13 6.64688125E-13-1.41319522E-01-6.85173266E-02-6.82956654E-02
14  7 1.36812992E-01-1.29433269E-03 8.03229937E-14 1.27578942E-13
15  1-8.03494758E-03-6.52729722E-02-1.58806903E-01 7.03505986E-02-1.63378920E-14
15  2 1.43686663E-14-4.80940814E-03 1.32363865E-13-1.81314716E-13-1.55997511E-01
15  3 3.81839967E-13-3.80984190E-13-1.68947289E-01-5.55042418E-02-3.70508366E-02
15  4 9.25550784E-02-1.07753855E-01 2.17235203E-13-2.69253836E-13-3.17918545E-01
15  5-7.77347288E-01 8.03392467E-01-4.58352046E-13 5.40429741E-13 7.68719730E-02
15  6 4.30766301E-13-5.05294392E-13-2.22883651E-01 4.02902339E-01 4.01509042E-01
15  7-8.04411381E-01 8.13579128E-03 5.20400087E-14-9.72979626E-14
16  1 1.54495710E-14 4.76074740E-14 1.52246441E-13-3.73664638E-14 1.55111853E-02
16  2-1.71204783E-02 1.76082460E-14-1.35823033E-01 1.49914719E-01 2.29864669E-13
16  3-3.27743368E-01 3.61746880E-01 2.25072199E-13 5.43213956E-14-1.03877110E-14
16  4-4.39336846E-14 2.27676928E-13-2.05216076E-01 2.26507284E-01 3.55986950E-13
16  5 8.56512828E-13-9.13136921E-13 4.33180163E-01-4.78122698E-01-7.67672353E-15
16  6-4.05327275E-01 4.47380098E-01 2.19609819E-13-4.38939191E-13-4.34726699E-13
16  7 8.73665890E-13-1.10543429E-14-6.69661911E-02 7.39139448E-02
17  1-3.12814553E-14 1.80031986E-14 1.13299005E-13 4.90850826E-14 1.16588257E-02
17  2 1.05629189E-02 2.35508369E-14 4.60952195E-02 4.17623524E-02 4.93884561E-13
17  3-8.16092361E-02-7.39381360E-02 4.22087612E-13 3.02398103E-14-5.75364039E-14
17  4 2.72965936E-14 2.05033333E-13 3.43759819E-01 3.11447065E-01 1.68475853E-13
17  5 3.44345495E-13-4.99420198E-13-5.91098127E-01-5.35536009E-01 3.34411908E-13
17  6 6.35534736E-01 5.75795719E-01 2.59808181E-13-2.15561971E-13-2.25351753E-13
17  7 4.40913724E-13-3.76490023E-15 1.24668004E-01 1.12949452E-01
18  1-1.32951740E-01-1.05600316E+00-1.83233796E+00 1.99167499E+00 1.02586584E-14
18  2-6.61830914E-15-5.71740966E-02-9.89128079E-14 1.27220109E-13-2.08189706E-01
18  3-2.72569024E-13 2.62609181E-13 4.48405026E-01-1.05281883E-01-9.89402502E-02
18  4 2.04222133E-01-3.70303118E-02-6.87636798E-14 2.57777383E-13 2.42608348E-01
18  5 5.28219698E-01-8.29122097E-01 1.75024700E-13-5.09696042E-13-1.45934148E-01
18  6-1.44090363E-13 4.95227872E-13 3.87938396E-01 2.70477343E-02 2.69717002E-02
18  7-5.40194345E-02 4.43981107E-04-1.97209464E-14 8.65424454E-14
19  1 2.88887203E-02 2.31763426E-01 4.67331374E-01-3.60999669E-01 2.35539269E-14
19  2-1.83140456E-14-2.13699723E-01-1.72830588E-13 2.05795147E-13-1.00948985E+00
19  3-4.62003298E-13 4.57005405E-13 1.22464602E+00-1.32047284E-01-1.29661788E-01
19  4 2.61709072E-01-1.39294802E-02-1.26078663E-13 4.30791782E-13 2.87974384E-01
19  5 6.53320921E-01-9.25957983E-01 2.98034233E-13-8.99235632E-13-1.05747083E-01
19  6-2.43527394E-13 8.77293797E-13 2.70287037E-01 1.01672048E-01 1.01332141E-01
19  7-2.03004189E-01 1.98479509E-03-3.89751425E-14 1.45084421E-13
20  1-2.27136852E-16-8.90655053E-16-1.33048031E-15 1.24830630E-16-1.52903064E-01
20  2 1.68766816E-01-2.15939877E-17-7.72862514E-01 8.53047302E-01 1.21437070E-15
20  3 7.96809293E-01-8.79478569E-01-4.74578032E-15-1.41842579E-17-1.00526515E-15
20  4 1.01944941E-15 3.55636425E-15 3.14339511E-02-3.46952361E-02-4.13261218E-15
20  5-9.08091816E-15 9.94972380E-15 1.49873533E-01-1.65422971E-01 4.79652614E-15
20  6-2.37849402E-01 2.62526371E-01-6.02240523E-15 5.70116483E-15 4.24799823E-15
20  7-9.94916306E-15 2.65499507E-17 1.18948782E-02-1.31289766E-02
21  1-2.38762439E-16-5.88092975E-16-2.77393066E-15 6.74353241E-15 1.74048503E-01
21  2 1.57688282E-01-8.33355049E-15 8.81923116E-01 7.99024055E-01-4.62335213E-14
21  3-8.83098500E-01-8.00088961E-01 5.91409243E-14 7.51407069E-15 6.43020721E-15
21  4-1.39442779E-14 3.18990936E-14-3.89593592E-02-3.52972587E-02 1.67702332E-15
21  5 2.06121971E-15-1.35352566E-14 1.14087498E-02 1.03363597E-02-1.77402095E-14
21  6 6.35226855E-02 5.75516750E-02 2.84377801E-14-5.00106975E-14-4.91227024E-14
21  7 9.91333999E-14-1.10936013E-15-2.37601296E-02-2.15267247E-02
22  1-3.79738197E-03-2.77033601E-02-1.91378141E-02 9.58410015E-02-2.80503086E-14
22  2 2.82427038E-15-4.01034643E-02 8.13108690E-14-2.09968649E-13-1.68152885E-01
22  3 3.99257999E-13-2.94420015E-13 3.14197283E-01-6.69916626E-02-7.55154914E-02
22  4 1.42507154E-01 4.97726790E-02 9.90056606E-14-3.25041522E-13-3.62261746E-01
22  5-9.23971090E-01 7.98277664E-01-2.13533774E-13 6.35420230E-13-6.40519326E-01
22  6 1.66739338E-13-6.18109014E-13 8.17312633E-01-1.26652268E-01-1.26167663E-01
22  7 2.52819931E-01-2.82972755E-03 3.36754061E-14-1.05190908E-13
23  1 1.45408427E-02 1.18868241E-01 2.78796142E-01-1.33406581E-01 2.97328258E-14
23  2-6.16390686E-15 1.04682595E-01-8.58862383E-14 2.04412250E-13 6.24587946E-01
23  3-4.01136820E-13 3.10493133E-13-3.34434630E-01-2.41468901E-01-2.48087123E-01
23  4 4.89556024E-01 3.86453841E-02-1.03412029E-13 3.26056112E-13 2.70406450E-01
23  5 6.61500104E-01-6.35159869E-01 2.64660818E-13-6.45433714E-13-5.38679327E-01
23  6-2.22226636E-13 6.27153207E-13 7.36603300E-01 1.88310070E-01 1.87767484E-01
23  7-3.76077554E-01 3.16829479E-03-3.85036031E-14 1.04705760E-13
24  1 1.15014942E-14 5.47767605E-14 1.27470094E-13-6.47755476E-14 2.63027310E-02
24  2-2.90316503E-02 1.06274714E-14 2.49296352E-01-2.75160946E-01 9.59013777E-14
24  3 4.51001542E-03-4.97792293E-03 8.12536157E-14 5.19415872E-14 5.92801558E-14
24  4-1.11221743E-13 1.63167332E-13 4.71796510E-01-5.20745540E-01 3.21287203E-13
24  5 7.70277653E-13-7.64374518E-13 3.82110371E-01-4.21754397E-01-1.26389316E-13
24  6-4.81655396E-01 5.31627263E-01 1.64055543E-13-3.75303073E-13-3.77934941E-13
24  7 7.53238014E-13-4.63063874E-15 1.28866854E-01-1.42236828E-01
25  1 1.76325463E-15 1.18366595E-14 1.98584479E-14-8.59890082E-15-2.64209732E-03
25  2-2.39374693E-03 9.39260276E-15-3.44133699E-02-3.11786057E-02 4.17420148E-14
25  3-1.70385434E-02-1.54369661E-02-7.57752684E-15-1.78487607E-14 3.24948441E-14
25  4-1.46460834E-14 7.29702366E-14-6.20362543E-01-5.62049731E-01 6.31689565E-14
25  5 1.57376520E-13-1.48417490E-13-3.60943969E-01-3.27015940E-01-2.97681098E-14
25  6 4.59549202E-01 4.16352499E-01 4.42284524E-14-1.00890269E-13-8.85933641E-14
25  7 1.89483633E-13-2.81210056E-15-1.98143567E-01-1.79518475E-01
26  1 9.64146497E-15-2.08688471E-14-4.05562331E-13-5.72712319E-13 1.09277572E-16
26  2 1.84190771E-16 2.89165923E-14 1.38917459E-15-8.34296805E-16 1.44531422E-12
26  3 7.60674650E-16-2.54603628E-18 1.40908584E-12-6.09921972E-01 6.09921972E-01
26  4-5.01894828E-12 6.96348626E-02 1.45705601E-14 2.16768146E-14 1.06798673E-13
26  5 3.38031843E-13-1.89835446E-13 5.69971999E-16-5.36869217E-15-1.82904666E-12
26  6-1.27320927E-15 4.46911938E-15 2.43475788E-13 6.09921972E-01-6.09921972E-01
26  7 3.94726556E-12-6.96348626E-02-4.90711615E-14 6.67467866E-14
27  1-9.90495367E-06-7.94484530E-05-9.83284387E-05 1.87964858E-04 1.83970889E-16
27  2 9.59940180E-18-2.44043072E-05-1.99990368E-16 2.65171592E-16 1.10148592E-04
27  3-2.60835777E-16 2.76473136E-16 4.40158124E-04 2.05013698E-03 1.58484107E-03
27  4-3.63497805E-03 2.71697433E-03 2.63894281E-15-9.15202311E-16 9.80520780E-05
27  5 3.14766338E-04-1.08121586E-04-6.73488529E-16-1.46176079E-16-6.92386584E-04
27  6 6.45355262E-16 1.19213056E-16 9.07991179E-05-7.95719751E-02 9.08400852E-02
27  7-1.12681101E-02-9.95076852E-01 9.38464984E-15-5.58872410E-15
28  1 9.04713960E-15-2.93383132E-14-4.16377135E-13-5.59294900E-13 2.84449679E-16
28  2-8.72169268E-17 2.46604280E-14 1.59942084E-15 2.93598728E-16 1.35370311E-12
28  3 7.00108008E-16-6.02434162E-16 1.31550801E-12-6.08881152E-01 6.08881152E-01
28  4-3.21873508E-12 6.95160321E-02 4.59243463E-15 1.51964733E-14 3.09883616E-14
28  5 6.75454184E-14-1.54469057E-13-8.22968646E-16-6.05560213E-15-1.23451195E-12
28  6 1.44213971E-15 5.93933949E-15-1.16304831E-13-6.08881152E-01 6.08881152E-01
28  7 1.82473691E-12 6.95160321E-02 2.59604751E-14 1.00886430E-13
29  1-1.89458274E-16 4.34569064E-15 1.05807624E-14-4.96635974E-15 4.97493814E-04
29  2-5.49109029E-04 8.19985423E-16 9.11783755E-03-1.00638169E-02 9.48605576E-15
29  3 5.05855998E-03-5.58338726E-03 8.97062206E-15 1.01094883E-13-6.35418055E-14
29  4-3.75530773E-14 1.33084484E-14 1.63337119E-01-1.80283415E-01 2.65390797E-14
29  5 6.31655754E-14-6.03567658E-14 1.96902701E-03-2.17331230E-03-1.84917886E-14
29  6-2.16776863E-02 2.39267545E-02 1.79303498E-14-4.32783740E-14-1.15840901E-14
29  7 5.48624641E-14-8.18393364E-15-6.48656004E-01 7.15954334E-01
30  1 1.94588008E-15-7.83073355E-16-1.25418759E-15 6.11655022E-16-1.10427322E-03
30  2-1.00047374E-03-6.53942377E-16-6.14642421E-03-5.56867254E-03-9.14976606E-16
30  3 4.82120261E-03 4.36801925E-03 2.07061594E-15-3.61678833E-14 5.96092431E-14
30  4-2.34413598E-14 5.03763440E-15 2.24463505E-01 2.03364369E-01-3.60055456E-15
30  5-8.25322316E-15 1.00340113E-14-6.34466031E-03-5.74827632E-03-5.60664451E-15
30  6-1.66671085E-02-1.51004316E-02 1.47935019E-15-4.93526434E-14 4.63104581E-14
30  7 3.04218530E-15 2.88742746E-15-7.02906025E-01-6.36834210E-01
31  1-3.34426288E-04-3.09965091E-03-1.30376460E-02-4.45959631E-03-1.29292957E-15
31  2 4.07873232E-16-1.45120604E-03 1.78422400E-15-4.32070446E-15-5.85727821E-02
31  3 1.62615954E-14-1.42036011E-14-6.90243849E-02-4.49120833E-01-4.02607769E-01
31  4 8.51728602E-01-2.71600923E-01 5.41762998E-14-5.74064915E-14-2.68428301E-02
31  5-9.63138263E-02 1.73127323E-02-2.29267167E-14 3.87411993E-14 2.48619012E-01
31  6 1.78499247E-14-3.54861397E-14-1.28923850E-01-1.48140392E-01-1.46889057E-01
31  7 2.95029449E-01-7.30684333E-03-2.44568763E-14-3.54766454E-15
32  1 8.00065579E-15 3.97885724E-14 9.15335197E-14-4.74337162E-14 1.41390324E-02
32  2-1.56059632E-02 7.91665021E-15 3.14471231E-01-3.47097747E-01 6.12922265E-14
32  3 2.13495649E-01-2.35645901E-01 5.60900657E-14 3.90974861E-14-1.75481535E-14
32  4-2.15493326E-14 9.10028161E-14-4.04143602E-01 4.46073633E-01 2.29364497E-13
32  5 5.46953876E-13-5.48464960E-13 2.00091327E-01-2.20850850E-01-7.91153282E-14
32  6-2.36264267E-01 2.60776758E-01 1.13127509E-13-2.81640874E-13-2.76726529E-13
32  7 5.58367403E-13-9.16118877E-15-9.49697263E-02 1.04822864E-01
 $END
