 $CONTRL SCFTYP=GVB RUNTYP=ENERGY ICHARG=0 MULT=2 NOSYM=1 ICUT=11
  MAXIT=500 ISPHER=1 $END
 $SYSTEM MWORDS=312 $END
 $SCF NCO=9 NPAIR=2 NSETO=1 NO(1)=1 DIRSCF=.T. $END
 $GUESS GUESS=MOREAD NORB=32 $END
 $DATA
GAMESS inp file produced by MOKIT,nif=32,nbf=32
C1   1
Si   14.         0.00000000         0.00000000         0.00000000
   S 11
   1   7.88600000E+04   2.70437361E-04   0.00000000E+00
   2   1.18200000E+04   2.09714953E-03   0.00000000E+00
   3   2.69200000E+03   1.08504941E-02   0.00000000E+00
   4   7.63400000E+02   4.36749737E-02   0.00000000E+00
   5   2.49600000E+02   1.37651657E-01   0.00000000E+00
   6   9.02800000E+01   3.16640910E-01   0.00000000E+00
   7   3.52900000E+01   4.18576915E-01   0.00000000E+00
   8   1.45100000E+01   2.10209948E-01   0.00000000E+00
   9   4.05300000E+00   1.44950585E-02   0.00000000E+00
  10   1.48200000E+00  -2.03588013E-03   0.00000000E+00
  11   2.51700000E-01   6.24183908E-04   0.00000000E+00
   S 11
   1   7.88600000E+04  -7.21209338E-05   0.00000000E+00
   2   1.18200000E+04  -5.53591991E-04   0.00000000E+00
   3   2.69200000E+03  -2.92996280E-03   0.00000000E+00
   4   7.63400000E+02  -1.17363058E-02   0.00000000E+00
   5   2.49600000E+02  -4.01797968E-02   0.00000000E+00
   6   9.02800000E+01  -1.00332066E-01   0.00000000E+00
   7   3.52900000E+01  -1.95987042E-01   0.00000000E+00
   8   1.45100000E+01  -1.02100186E-01   0.00000000E+00
   9   4.05300000E+00   5.25738870E-01   0.00000000E+00
  10   1.48200000E+00   5.91618032E-01   0.00000000E+00
  11   2.51700000E-01   3.31736350E-02   0.00000000E+00
   S 11
   1   7.88600000E+04   3.38920342E-05   0.00000000E+00
   2   1.18200000E+04   2.60443163E-04   0.00000000E+00
   3   2.69200000E+03   1.37726900E-03   0.00000000E+00
   4   7.63400000E+02   5.53476510E-03   0.00000000E+00
   5   2.49600000E+02   1.89833843E-02   0.00000000E+00
   6   9.02800000E+01   4.80756033E-02   0.00000000E+00
   7   3.52900000E+01   9.59430205E-02   0.00000000E+00
   8   1.45100000E+01   5.32749453E-02   0.00000000E+00
   9   4.05300000E+00  -3.25925649E-01   0.00000000E+00
  10   1.48200000E+00  -6.35130495E-01   0.00000000E+00
  11   2.51700000E-01   1.14075717E+00   0.00000000E+00
   S  1
   1   9.24300000E-02   1.00000000E+00   0.00000000E+00
   P  7
   1   3.15900000E+02   3.92562090E-03   0.00000000E+00
   2   7.44200000E+01   2.98739534E-02   0.00000000E+00
   3   2.34800000E+01   1.27181575E-01   0.00000000E+00
   4   8.48800000E+00   3.20866241E-01   0.00000000E+00
   5   3.21700000E+00   4.55320076E-01   0.00000000E+00
   6   1.22900000E+00   2.68498769E-01   0.00000000E+00
   7   2.96400000E-01   1.88290956E-02   0.00000000E+00
   P  7
   1   3.15900000E+02  -1.68892302E-03   0.00000000E+00
   2   7.44200000E+01  -1.24033027E-02   0.00000000E+00
   3   2.34800000E+01  -5.67214851E-02   0.00000000E+00
   4   8.48800000E+00  -1.36672303E-01   0.00000000E+00
   5   3.21700000E+00  -2.35132796E-01   0.00000000E+00
   6   1.22900000E+00  -3.92726257E-02   0.00000000E+00
   7   2.96400000E-01   1.00408176E+00   0.00000000E+00
   P  1
   1   8.76800000E-02   1.00000000E+00   0.00000000E+00
   D  1
   1   2.75000000E-01   1.00000000E+00   0.00000000E+00

F     9.         0.00000000         0.00000000         1.67000000
   S  8
   1   1.47100000E+04   7.20673709E-04   0.00000000E+00
   2   2.20700000E+03   5.55048697E-03   0.00000000E+00
   3   5.02800000E+02   2.82542077E-02   0.00000000E+00
   4   1.42600000E+02   1.06395828E-01   0.00000000E+00
   5   4.64700000E+01   2.86684201E-01   0.00000000E+00
   6   1.67000000E+01   4.48437966E-01   0.00000000E+00
   7   6.35600000E+00   2.64641181E-01   0.00000000E+00
   8   1.31600000E+00   1.53260610E-02   0.00000000E+00
   S  8
   1   1.47100000E+04  -3.21193890E-04   0.00000000E+00
   2   2.20700000E+03  -2.54619157E-03   0.00000000E+00
   3   5.02800000E+02  -1.26433595E-02   0.00000000E+00
   4   1.42600000E+02  -5.19574917E-02   0.00000000E+00
   5   4.64700000E+01  -1.43447138E-01   0.00000000E+00
   6   1.67000000E+01  -3.32437623E-01   0.00000000E+00
   7   6.35600000E+00  -2.18659068E-01   0.00000000E+00
   8   1.31600000E+00   1.09559041E+00   0.00000000E+00
   S  1
   1   3.89700000E-01   1.00000000E+00   0.00000000E+00
   P  3
   1   2.26700000E+01   6.48340215E-02   0.00000000E+00
   2   4.97700000E+00   3.40535360E-01   0.00000000E+00
   3   1.34700000E+00   7.34646407E-01   0.00000000E+00
   P  1
   1   3.47100000E-01   1.00000000E+00   0.00000000E+00
   D  1
   1   1.64000000E+00   1.00000000E+00   0.00000000E+00

 $END
 $VEC
 1  1-5.41661559E-03 1.19507155E-01-3.82229095E-04-1.33359250E-03 5.78351407E-08
 1  2-8.08545271E-08-2.57816503E-02-1.47055711E-10 2.03258624E-10 5.82018456E-04
 1  3-3.60118002E-10 4.97804810E-10 4.25554851E-04-1.59950764E-04-1.61771603E-04
 1  4 3.21722367E-04 3.19386799E-06-1.37254351E-10 1.87868528E-10 9.93032475E-01
 1  5-1.69808533E-02-2.49020496E-02-1.56240785E-09 2.14173288E-09-3.65174322E-03
 1  6-1.17177762E-09 1.60754891E-09-5.99389219E-04 1.46732073E-04 1.25822100E-04
 1  7-2.72554173E-04 3.66774447E-05 3.46989555E-11-4.75248051E-11
 2  1 9.79051106E-01-1.56906584E-01 1.20823119E-03 1.33707417E-03 4.35139383E-10
 2  2-6.81432646E-10-1.28918150E-01-1.21317901E-12 1.66227581E-12 7.73096312E-04
 2  3-2.93334305E-12 4.05636735E-12 3.52729025E-04 1.53201017E-05 1.02491032E-05
 2  4-2.55692049E-05 8.89485968E-06-1.19645619E-12 1.48628804E-12 2.06426584E-02
 2  5 4.81359517E-04 9.03695485E-04-1.34869783E-11 1.70015834E-11-3.39157423E-03
 2  6-1.00625388E-11 1.27958268E-11-2.90400629E-03 1.63811086E-06 2.65787832E-07
 2  7-1.90389869E-06 2.40714343E-06 3.01083507E-13-3.76701813E-13
 3  1-2.03622372E-01-7.55981961E-01 2.44132141E-03 8.42904811E-03 5.27718995E-10
 3  2-1.10885340E-09-6.21997812E-01-1.85559267E-12 2.51435852E-12 2.40018124E-04
 3  3-4.40122873E-12 6.10540975E-12 1.37735960E-03 7.37145915E-04 6.99521085E-04
 3  4-1.43666700E-03 6.59963876E-05-2.06274942E-12 2.07043147E-12 7.22375349E-02
 3  5 9.92948673E-04 4.12071903E-03-2.28291230E-11 2.39336732E-11-6.18680183E-03
 3  6-1.68617779E-11 1.81403739E-11-7.55103641E-03 1.12381450E-04 1.04058796E-04
 3  7-2.16440246E-04 1.45984737E-05 5.14365185E-13-5.26517430E-13
 4  1-4.36203144E-12-9.75473424E-09 3.12664007E-11 1.02349888E-10 5.86170706E-01
 4  2-8.09987150E-01 2.08689443E-09-1.47895871E-03 2.04380694E-03-5.24994119E-11
 4  3-3.62249364E-03 5.00601056E-03-4.16041988E-11 1.56882084E-11 1.58856625E-11
 4  4-3.15738709E-11-3.49830866E-13-1.37157416E-03 1.89552551E-03-9.90060011E-08
 4  5 1.60619732E-09 2.37877095E-09-1.56287147E-02 2.15987978E-02 3.45529781E-10
 4  6-1.17274871E-02 1.62072434E-02 5.13305894E-11-1.42093261E-11-1.20577101E-11
 4  7 2.62670362E-11-3.77466487E-12 3.46897861E-04-4.79413512E-04
 5  1-8.41931359E-04-6.27628362E-01 3.64307806E-03 9.74002945E-03 1.35193754E-09
 5  2-1.16133107E-09 7.69393934E-01-2.52372114E-12 3.54178424E-12-1.41356226E-03
 5  3-6.29978272E-12 8.63983871E-12-1.50291516E-03-6.36187591E-04-6.21331759E-04
 5  4 1.25751935E-03-2.60580914E-05-1.68900607E-12 3.76085100E-12 9.76193448E-02
 5  5 3.74659640E-02 4.20811477E-02-2.04018963E-11 4.20622523E-11 6.83697450E-03
 5  6-1.57940484E-11 3.12167628E-11 5.05336450E-03-3.95448326E-04-4.22367544E-04
 5  7 8.17815870E-04 4.72180522E-05 4.38815186E-13-9.43481705E-13
 6  1 1.91099820E-12-1.49265467E-10 1.55385018E-12 3.13656810E-12-8.09582997E-01
 6  2-5.85878279E-01 4.76304168E-10 5.04484089E-05 3.65869180E-05-4.36678273E-13
 6  3 1.38713892E-04 1.00616672E-04-9.83101890E-13-5.34548824E-13-5.15842256E-13
 6  4 1.05039108E-12-3.49677042E-14-1.56022137E-03-1.12893970E-03-5.21603159E-10
 6  5 3.46553723E-11 4.16712567E-11-1.49983635E-02-1.08522867E-02 7.14153012E-12
 6  6-1.01346313E-02-7.33298796E-03 4.77182608E-12-3.11543983E-13-3.14826189E-13
 6  7 6.26370172E-13 6.07867866E-15 3.68281742E-04 2.66478054E-04
 7  1 1.54901603E-03-4.18398719E-02-1.41250401E-02-1.84391584E-02-3.53214994E-11
 7  2 1.38053462E-11 7.30202061E-02-8.15814756E-15 5.55296660E-14-1.85644689E-02
 7  3 6.85499717E-14-6.43909574E-14-8.86225147E-03 8.12894408E-03 7.95239892E-03
 7  4-1.60813430E-02 3.09671638E-04-3.42809200E-14 8.04147654E-15-2.18641412E-02
 7  5-4.88933750E-01-5.61359638E-01-2.10352293E-13-2.29235667E-14-6.39992795E-02
 7  6-1.30601026E-13-2.20754368E-14-4.43449125E-02 1.60866090E-03 1.89329774E-03
 7  7-3.50195864E-03-4.99271456E-04 6.26189435E-15 1.17177325E-15
 8  1 8.10252755E-05 2.69504759E-02 1.71460095E-01-6.51250331E-02-1.27559478E-11
 8  2 1.91787089E-11-1.18506921E-02 1.16462769E-13-1.48713228E-13 1.91585781E-01
 8  3 1.48260668E-13-1.98187322E-13 1.43392820E-02-2.92145973E-02-2.92339284E-02
 8  4 5.84485257E-02 3.39079764E-05 9.64774631E-14-1.22227905E-13-8.15666491E-03
 8  5-3.25000683E-04-2.47030858E-02 9.80264687E-13-1.22973809E-12-6.00846130E-01
 8  6 7.20926458E-13-9.09484655E-13-4.14173006E-01-9.55710183E-03-9.29299117E-03
 8  7 1.88500930E-02-4.63267187E-04-2.23738457E-14 2.79082649E-14
 9  1-6.06027855E-14 5.69700705E-13 1.25610304E-13-2.28565574E-13-2.04545944E-02
 9  2 2.82663245E-02 7.02081977E-13-4.91145166E-02 6.78727511E-02 3.67035414E-13
 9  3-3.96112663E-02 5.47399312E-02 7.17854428E-14-6.38498278E-14-6.22307432E-14
 9  4 1.26080571E-13-2.32843375E-15-3.87761342E-02 5.35858427E-02-5.95266159E-13
 9  5 7.66421822E-13 8.62949256E-13-3.70283948E-01 5.11706010E-01-8.24322721E-13
 9  6-2.71047943E-01 3.74568921E-01-5.75999770E-13-1.75995075E-14-1.71011454E-14
 9  7 3.47006529E-14-6.55271573E-16 8.54484669E-03-1.18083677E-02
10  1 1.43568499E-18 1.89033996E-17-1.21636585E-16-1.22658112E-16 7.37760432E-03
10  2 5.33863522E-03 1.81232174E-16 4.34901608E-01 3.14706634E-01-4.58750912E-17
10  3 4.73779028E-01 3.42839392E-01-4.80885407E-16-3.95008154E-16 3.62501390E-16
10  4 3.25067646E-17 1.66098156E-16-3.93090943E-02-2.84451300E-02-2.87164837E-16
10  5-6.77803251E-17 2.63020996E-16-1.19748835E-01-8.66535141E-02-3.58086974E-17
10  6-1.29368313E-01-9.36144307E-02-7.69099725E-17-1.00699363E-16 9.33258446E-17
10  7 7.37351868E-18 6.35851730E-17-2.16667186E-03-1.56786268E-03
11  1 2.69838157E-14 4.48765224E-14-2.76052628E-14-7.69576801E-15-2.83632777E-02
11  2-2.05244858E-02-9.04939679E-13 6.12065889E-02 4.42906946E-02-3.85073570E-15
11  3 4.27766367E-02 3.09542912E-02 7.37330119E-15-4.80531438E-16 5.57218963E-16
11  4-7.66875250E-17-2.77117438E-16 4.64888125E-02 3.36405235E-02 1.22990750E-13
11  5 1.20835112E-13 1.43923023E-13 5.20720526E-01 3.76807100E-01 6.00047102E-14
11  6 3.74208131E-01 2.70786863E-01 3.92388978E-14 6.28855468E-16 6.03571542E-16
11  7-1.23242701E-15-1.02319040E-16-1.11405596E-02-8.06160183E-03
12  1-5.71880490E-16-6.18458512E-15-1.42845202E-14-2.59326337E-14 1.10732900E-01
12  2 8.01293351E-02-1.41641634E-14 5.53878589E-01 4.00801548E-01-5.44615829E-14
12  3-4.59096632E-01-3.32214859E-01-3.26823815E-14 1.44913604E-14 1.28761864E-14
12  4-2.73675468E-14-2.71396696E-14-2.72590143E-01-1.97253661E-01 7.54202498E-15
12  5 3.77973186E-14 2.26053372E-14 5.72678034E-01 4.14405378E-01-1.45012071E-14
12  6-5.05616726E-01-3.65877961E-01-3.84673514E-14 4.92166456E-15 4.84276255E-15
12  7-9.76442711E-15 2.23971446E-14 5.78399616E-02 4.18545704E-02
13  1-2.02295179E-04 7.96337510E-03 5.16448050E-01 5.42013078E-01-2.15921653E-14
13  2-1.25570014E-14 1.72109796E-03-1.23636819E-14 2.10487646E-14-1.80370030E-01
13  3-1.00902014E-14 1.68171679E-14-1.27882468E-01 2.32120025E-02 2.14044665E-02
13  4-4.46164690E-02 3.17053513E-03-9.87340551E-15 1.66528201E-14 6.48172737E-04
13  5-4.39111529E-02-9.12207535E-02-9.15103887E-14 1.59593522E-13 7.98873841E-02
13  6-6.73279920E-14 1.16704167E-13 7.72362028E-02-3.59041729E-04-2.53376949E-04
13  7 6.12418678E-04-1.85342863E-04 2.14194497E-15-3.66825010E-15
14  1 5.75997188E-04 3.79028385E-03 6.01901271E-02 2.81080727E-02-3.36832313E-15
14  2 1.16140140E-14-4.39690347E-03-1.03805424E-13 1.77306084E-13 2.18115008E-01
14  3-9.43805183E-14 1.03478863E-13 2.70791374E-01 4.56133911E-01 7.35125099E-02
14  4-5.29646421E-01 6.71142708E-01-3.83143207E-14 4.08218994E-14-1.80474226E-03
14  5-3.26551546E-02 3.10984121E-02 2.37379276E-14 2.66027320E-15 8.97357063E-02
14  6 5.26072569E-14-1.05970793E-13-4.00075375E-02-3.01945835E-03-2.02027408E-03
14  7 5.03973243E-03-1.75263388E-03 3.48249408E-15-2.32816084E-16
15  1 9.24116584E-14 7.68015914E-13 1.31337123E-12-9.84908189E-13-2.20679542E-02
15  2 3.04967465E-02 2.18729237E-13-3.94565058E-01 5.45262387E-01 5.13528860E-13
15  3-2.73566962E-01 3.78047786E-01-5.53695204E-13-2.27402229E-13-2.34530393E-13
15  4 4.61932622E-13 1.02505676E-13-1.31464419E-01 1.81673176E-01 4.27955401E-13
15  5 1.07529637E-12-1.11309692E-12 2.18364242E-02-3.01740956E-02-4.29478101E-13
15  6 2.37082718E-01-3.27633083E-01 8.81536783E-13 7.19664605E-14 6.33286645E-14
15  7-1.35295125E-13 2.30693411E-13 5.44558948E-03-7.52518136E-03
16  1-1.00353445E-02-2.53410192E-02 1.33806151E-01 1.02360804E+00 1.91408376E-14
16  2-2.39189687E-14 2.68374879E-01 1.89688090E-13-2.42198820E-13 1.01376677E+00
16  3 7.34022892E-14-1.17638665E-13 5.82682697E-01-5.43194018E-01-5.54211932E-01
16  4 1.09740595E+00 1.93261327E-02 1.70988965E-13-2.36063353E-13 7.37008735E-01
16  5 1.57980305E+00-2.90309206E+00 1.47314976E-13-1.89948668E-13-2.36814380E-01
16  6-3.00480993E-13 4.00804205E-13 1.29824850E+00 8.54366487E-02 8.57662763E-02
16  7-1.71202925E-01-5.78188172E-04 2.73931494E-14-3.61773038E-14
17  1 1.38686316E-01 1.11642212E+00 1.98707188E+00-1.77199958E+00 3.14858208E-14
17  2-4.25726474E-14 1.57709975E-01 3.15844036E-13-4.32944334E-13 5.75318876E-01
17  3 1.48622212E-13-2.08487648E-13-3.58289567E-01-7.60681112E-02-7.69438368E-02
17  4 1.53011948E-01 1.53607925E-03 3.31256686E-13-4.54276630E-13 7.78762925E-03
17  5 4.13188716E-03 2.37762777E-02 2.88618024E-13-3.99134477E-13-1.61971207E-01
17  6-5.72581820E-13 7.89984946E-13 7.06590042E-01 7.40713045E-02 7.40797545E-02
17  7-1.48151059E-01-1.48216873E-05 5.36891042E-14-7.38923745E-14
18  1-2.42568463E-02-1.84253858E-01-3.62405982E-01 5.57568169E-01 3.02222789E-15
18  2 4.47018895E-15 2.74891095E-01 1.00055027E-14 3.37441393E-14 1.18006290E+00
18  3-3.07372612E-14 8.03544768E-16-1.02247282E+00-5.33662834E-02-6.63411506E-02
18  4 1.19707434E-01 2.27587572E-02-1.95601571E-14 2.98008386E-14-2.18540067E-01
18  5-5.66262739E-01 4.96560898E-01-9.89921402E-15 3.76764622E-14-3.08714154E-01
18  6 2.52598119E-14-6.10835233E-14 7.85037268E-01 6.15599869E-02 6.20715861E-02
18  7-1.23631573E-01-8.97378218E-04-1.96997720E-15 6.26009198E-15
19  1-2.20219216E-14-1.83293812E-13-3.48060352E-13 1.95206742E-13-1.20528429E-01
19  2 1.66561424E-01-3.52659381E-14-6.11872675E-01 8.45563030E-01-1.32118383E-13
19  3 6.98071679E-01-9.64683817E-01-9.23871148E-14 7.78799348E-14 7.83096212E-14
19  4-1.56189556E-13 4.70484522E-15 1.56089951E-01-2.15704744E-01-2.99498079E-14
19  5-4.37467983E-14 2.06778234E-13 2.02612008E-01-2.79995291E-01 5.09708231E-14
19  6-3.35177291E-01 4.63190794E-01-2.44885696E-13-1.94300395E-14-2.00910177E-14
19  7 3.95210572E-14 1.63162882E-14 6.75505522E-03-9.33502281E-03
20  1 3.72429799E-17 1.35551649E-16-1.29918686E-15 1.29796352E-15-1.17374828E-01
20  2-8.49356363E-02 2.08467775E-15-5.91386489E-01-4.27943532E-01 8.61937149E-15
20  3 7.75078377E-01 5.60867765E-01-1.03868692E-14 1.74232185E-15 1.05708924E-15
20  4-2.79941109E-15-4.53417236E-16 3.78685346E-01 2.74026982E-01 1.68528112E-15
20  5 3.37823626E-15-3.98602506E-16 5.16651607E-01 3.73863173E-01-9.51099226E-16
20  6-7.80866911E-01-5.65056476E-01 2.54009514E-15 6.29935950E-16 5.99106930E-16
20  7-1.22904288E-15 1.17987819E-15 4.85900939E-02 3.51611148E-02
21  1 4.17615887E-03 4.44996737E-02 9.15707749E-02 1.95035994E-01-1.08018049E-13
21  2 1.60411861E-13-5.21201141E-02-5.20904149E-13 7.80748610E-13-3.79533459E-01
21  3 3.65944207E-13-5.49507969E-13 8.06002657E-01-1.72775321E-01-1.99037433E-01
21  4 3.71812754E-01 4.60654452E-02-5.04954797E-13 7.41633033E-13-2.18240596E-01
21  5-6.17687301E-01 1.31481900E-01-7.30003933E-13 1.04884369E-12-5.63248387E-01
21  6 9.79243469E-13-1.41458692E-12 7.19209297E-01-6.07483661E-03-4.73495099E-03
21  7 1.08097876E-02-2.35024611E-03-1.33036601E-13 1.95147792E-13
22  1-7.24754348E-14-5.82703229E-13-1.17680712E-12 1.00615347E-12 5.89041417E-02
22  2-8.14015103E-02-2.48755757E-13 2.38910268E-01-3.30158003E-01-1.48199887E-12
22  3-2.40872261E-01 3.32869032E-01 1.07997724E-12 1.42885033E-13 9.42468564E-14
22  4-2.37131889E-13 1.45226943E-13 2.91725646E-01-4.03142825E-01-4.81348730E-13
22  5-1.16561102E-12 1.18914478E-12 4.75760921E-01-6.57468356E-01-1.27417340E-12
22  6-5.93620312E-01 8.20341302E-01 5.65546514E-13-1.32545988E-13-1.36032183E-13
22  7 2.68578171E-13 1.68176831E-13 8.15757334E-02-1.12731861E-01
23  1 1.93941788E-15 1.61570622E-14-1.80081649E-14-2.26139451E-14-9.64798225E-02
23  2-6.98154602E-02 5.22021017E-15-5.15916769E-01-3.73332019E-01-7.54628754E-14
23  3 3.78410665E-01 2.73827846E-01-5.86033511E-14 1.26297794E-13 1.40172742E-13
23  4-2.66470536E-13-5.32644692E-14-7.58065746E-01-5.48557183E-01 4.91180731E-14
23  5 1.47263160E-13 3.48104610E-14-3.02732980E-02-2.19065697E-02-2.64270585E-13
23  6 3.28525131E-01 2.37730104E-01 1.37390279E-13-2.62098545E-14-2.77807472E-14
23  7 5.39906017E-14 2.53323888E-14-2.39197903E-01-1.73090096E-01
24  1-4.30669629E-03-3.48039849E-02 5.98215114E-02 9.97286104E-02-4.35580928E-15
24  2-5.65288658E-14-8.08266348E-03-1.63691741E-13-1.11045980E-13 2.23035079E-01
24  3-9.88819620E-14 3.80782698E-13 2.03698135E-01-3.46843352E-01-4.52092872E-01
24  4 7.98936224E-01 1.84614473E-01-1.89857962E-13-3.17472746E-13-1.51341262E-01
24  5-4.65854805E-01-1.02422514E-01 3.62838322E-13-4.70876809E-13 6.69226628E-01
24  6-2.28991729E-13 5.09068275E-13-2.74659090E-01 1.01116532E-01 1.11711539E-01
24  7-2.12828071E-01-1.85843295E-02-6.56330828E-14-1.08613099E-13
25  1 7.75328032E-15 6.27177732E-14 1.14294074E-13-7.22298886E-14 2.06448675E-03
25  2-2.85294043E-03 1.93203436E-14 1.67872793E-02-2.31986434E-02 8.95051868E-14
25  3 5.46240313E-03-7.54876119E-03-6.16785516E-15 2.37261872E-14 6.85216284E-14
25  4-9.22478156E-14-8.96995139E-14-3.92978534E-01 5.43067618E-01 4.11023076E-14
25  5 9.91050187E-14-8.60067286E-14 1.97303828E-01-2.72659360E-01-3.76762741E-14
25  6-7.59514350E-02 1.04959210E-01 7.78564083E-14-7.02019989E-15-1.41279085E-14
25  7 2.11481084E-14-1.35800146E-13-4.32494618E-01 5.97676058E-01
26  1 8.13086185E-14 4.20954255E-13 6.25761842E-12 5.27479514E-12-1.34655467E-15
26  2 6.19188556E-16 1.87737340E-13 2.35791354E-15-1.26431736E-14-2.17574167E-12
26  3 1.57206794E-14-1.13273468E-14-1.75042656E-12 5.89895063E-01-5.89895063E-01
26  4-8.42032609E-12-2.24201175E-01-3.33587349E-15 1.83745487E-14 4.16094675E-13
26  5 1.06595355E-12 1.40355024E-12-1.62918780E-14 4.26641712E-15 4.90447573E-12
26  6 1.30582375E-14-1.91805317E-15 3.51447272E-12-5.89895063E-01 5.89895063E-01
26  7 7.41420204E-12 2.24201175E-01 1.17912940E-14 5.10384505E-14
27  1-3.88769932E-04-2.49651721E-03 7.32901132E-03 1.68425864E-02-6.58034138E-15
27  2-4.42928009E-16 1.59448891E-04 1.62069028E-14-6.78527748E-14 3.00337045E-02
27  3 7.95353548E-14-6.46690585E-14 4.71265302E-02-1.24541027E-02 4.18256857E-02
27  4-2.93715830E-02-9.52102631E-02-2.57438098E-14 2.80896689E-14-5.75869395E-03
27  5-2.13653179E-02-4.92098048E-03-7.71133067E-14 5.94376124E-14 2.03844853E-02
27  6 5.95367207E-14-2.23121335E-14-5.49155419E-03 3.37107469E-01-1.96036382E-01
27  7-1.41071087E-01 9.35168830E-01 4.06338436E-14 2.46769061E-13
28  1 5.71005444E-16 3.67367797E-15 1.25143293E-14-4.27650258E-15 2.35626108E-02
28  2 1.70505562E-02 2.79713502E-15 1.14407945E-01 8.27888752E-02 4.57025467E-14
28  3-1.11172142E-01-8.04470675E-02-5.40850590E-15-1.71258073E-14-4.44421377E-14
28  4 6.15679450E-14 3.08544098E-15 1.25523543E-01 9.08323079E-02-8.66465130E-15
28  5-3.05704949E-14-1.72116380E-14 6.07782054E-02 4.39807536E-02 6.09684771E-14
28  6-1.29615176E-01-9.37931721E-02 8.86056860E-15-2.39404782E-13-3.14583523E-13
28  7 5.53988305E-13 2.63961216E-13-7.77053382E-01-5.62296937E-01
29  1-1.28138772E-03-7.69746917E-03-1.91059329E-02 8.36427366E-03 1.39186747E-14
29  2 9.52789998E-15-5.30857775E-03 6.22717111E-14 5.50494430E-14-6.74620789E-02
29  3-7.20125239E-14-3.68197078E-14 2.63901821E-02 5.32988761E-02 9.34762129E-02
29  4-1.46775089E-01-7.04736496E-02 9.24991667E-14 6.56615006E-14 1.61916236E-02
29  5 5.60707047E-02 3.01115025E-02 3.38971261E-14 7.77070838E-15-9.85076510E-02
29  6-7.69679065E-14-4.69680911E-14-2.30447527E-02 4.40080929E-01 5.19443891E-01
29  7-9.59524820E-01-1.39207771E-01-4.48044043E-13-3.54503608E-13
30  1 3.46216443E-14 1.13524553E-13 6.16650688E-12 6.12189039E-12 9.69006434E-16
30  2 2.29458594E-16 6.15776823E-14-1.39505610E-14 2.40693715E-14-3.20673607E-12
30  3-2.56220048E-14 3.16480759E-14-3.43790823E-13 5.73786170E-01-5.73786170E-01
30  4-1.25425577E-11-2.18078675E-01-1.79483393E-15 1.07721248E-14 6.82045691E-13
30  5 1.57979439E-12 1.75441837E-12 2.88828440E-14-3.92982667E-14 2.99592723E-12
30  6-1.52988174E-14 1.70284148E-14 2.44200620E-12 5.73786170E-01-5.73786170E-01
30  7-1.85254155E-11-2.18078675E-01 3.21950283E-14-7.59036521E-14
31  1 5.35827423E-15 4.67236643E-14 1.16043804E-13-1.99264713E-14-3.58629357E-04
31  2 4.95623998E-04 1.73266162E-14 3.40461300E-02-4.70491433E-02 1.70681047E-13
31  3 5.58009903E-02-7.71129963E-02 1.06923896E-13-4.37451816E-14 1.53793232E-13
31  4-1.10048050E-13-2.23617286E-13-3.77383211E-01 5.21516028E-01 1.36145095E-14
31  5 8.22294906E-15-8.85121938E-14 1.39169780E-01-1.92322369E-01 5.49683161E-14
31  6-1.71488049E-02 2.36982857E-02 5.63443084E-14-3.99515991E-14 1.48376217E-14
31  7 2.51139774E-14 8.85671058E-14 3.94130721E-01-5.44659917E-01
32  1 9.89145733E-04 6.37850971E-03-8.73448690E-02-1.19216571E-01-2.44330213E-15
32  2 1.89496093E-15-8.15311652E-03 1.83515042E-13-2.64917425E-13-3.45259501E-01
32  3 2.39890990E-13-3.22048319E-13-3.74342855E-01 5.93027901E-02-3.01879752E-01
32  4 2.42576962E-01 6.33537560E-01-1.81867339E-13 2.98912864E-13 4.81656956E-02
32  5 1.90884228E-01 6.13488015E-02-1.13674461E-13 1.24686968E-13-2.38644850E-01
32  6 5.32634125E-14-5.72674858E-14-3.12413639E-03 5.75487378E-02 4.47333963E-03
32  7-6.20220774E-02 9.30976843E-02 3.87666335E-14-8.21811612E-14
 $END
