 $CONTRL SCFTYP=GVB RUNTYP=ENERGY ICHARG=0 MULT=2 NOSYM=1 ICUT=11
  MAXIT=500 ISPHER=1 $END
 $SYSTEM MWORDS=312 $END
 $SCF NCO=9 NPAIR=2 NSETO=1 NO(1)=1 DIRSCF=.T. $END
 $GUESS GUESS=MOREAD NORB=32 $END
 $DATA
GAMESS inp file produced by MOKIT,nif=32,nbf=32
C1   1
Si   14.         0.00000000         0.00000000         0.00000000
   S 11
   1   7.88600000E+04   2.70437361E-04   0.00000000E+00
   2   1.18200000E+04   2.09714953E-03   0.00000000E+00
   3   2.69200000E+03   1.08504941E-02   0.00000000E+00
   4   7.63400000E+02   4.36749737E-02   0.00000000E+00
   5   2.49600000E+02   1.37651657E-01   0.00000000E+00
   6   9.02800000E+01   3.16640910E-01   0.00000000E+00
   7   3.52900000E+01   4.18576915E-01   0.00000000E+00
   8   1.45100000E+01   2.10209948E-01   0.00000000E+00
   9   4.05300000E+00   1.44950585E-02   0.00000000E+00
  10   1.48200000E+00  -2.03588013E-03   0.00000000E+00
  11   2.51700000E-01   6.24183908E-04   0.00000000E+00
   S 11
   1   7.88600000E+04  -7.21209338E-05   0.00000000E+00
   2   1.18200000E+04  -5.53591991E-04   0.00000000E+00
   3   2.69200000E+03  -2.92996280E-03   0.00000000E+00
   4   7.63400000E+02  -1.17363058E-02   0.00000000E+00
   5   2.49600000E+02  -4.01797968E-02   0.00000000E+00
   6   9.02800000E+01  -1.00332066E-01   0.00000000E+00
   7   3.52900000E+01  -1.95987042E-01   0.00000000E+00
   8   1.45100000E+01  -1.02100186E-01   0.00000000E+00
   9   4.05300000E+00   5.25738870E-01   0.00000000E+00
  10   1.48200000E+00   5.91618032E-01   0.00000000E+00
  11   2.51700000E-01   3.31736350E-02   0.00000000E+00
   S 11
   1   7.88600000E+04   3.38920342E-05   0.00000000E+00
   2   1.18200000E+04   2.60443163E-04   0.00000000E+00
   3   2.69200000E+03   1.37726900E-03   0.00000000E+00
   4   7.63400000E+02   5.53476510E-03   0.00000000E+00
   5   2.49600000E+02   1.89833843E-02   0.00000000E+00
   6   9.02800000E+01   4.80756033E-02   0.00000000E+00
   7   3.52900000E+01   9.59430205E-02   0.00000000E+00
   8   1.45100000E+01   5.32749453E-02   0.00000000E+00
   9   4.05300000E+00  -3.25925649E-01   0.00000000E+00
  10   1.48200000E+00  -6.35130495E-01   0.00000000E+00
  11   2.51700000E-01   1.14075717E+00   0.00000000E+00
   S  1
   1   9.24300000E-02   1.00000000E+00   0.00000000E+00
   P  7
   1   3.15900000E+02   3.92562090E-03   0.00000000E+00
   2   7.44200000E+01   2.98739534E-02   0.00000000E+00
   3   2.34800000E+01   1.27181575E-01   0.00000000E+00
   4   8.48800000E+00   3.20866241E-01   0.00000000E+00
   5   3.21700000E+00   4.55320076E-01   0.00000000E+00
   6   1.22900000E+00   2.68498769E-01   0.00000000E+00
   7   2.96400000E-01   1.88290956E-02   0.00000000E+00
   P  7
   1   3.15900000E+02  -1.68892302E-03   0.00000000E+00
   2   7.44200000E+01  -1.24033027E-02   0.00000000E+00
   3   2.34800000E+01  -5.67214851E-02   0.00000000E+00
   4   8.48800000E+00  -1.36672303E-01   0.00000000E+00
   5   3.21700000E+00  -2.35132796E-01   0.00000000E+00
   6   1.22900000E+00  -3.92726257E-02   0.00000000E+00
   7   2.96400000E-01   1.00408176E+00   0.00000000E+00
   P  1
   1   8.76800000E-02   1.00000000E+00   0.00000000E+00
   D  1
   1   2.75000000E-01   1.00000000E+00   0.00000000E+00

F     9.         0.00000000         0.00000000         1.93000000
   S  8
   1   1.47100000E+04   7.20673709E-04   0.00000000E+00
   2   2.20700000E+03   5.55048697E-03   0.00000000E+00
   3   5.02800000E+02   2.82542077E-02   0.00000000E+00
   4   1.42600000E+02   1.06395828E-01   0.00000000E+00
   5   4.64700000E+01   2.86684201E-01   0.00000000E+00
   6   1.67000000E+01   4.48437966E-01   0.00000000E+00
   7   6.35600000E+00   2.64641181E-01   0.00000000E+00
   8   1.31600000E+00   1.53260610E-02   0.00000000E+00
   S  8
   1   1.47100000E+04  -3.21193890E-04   0.00000000E+00
   2   2.20700000E+03  -2.54619157E-03   0.00000000E+00
   3   5.02800000E+02  -1.26433595E-02   0.00000000E+00
   4   1.42600000E+02  -5.19574917E-02   0.00000000E+00
   5   4.64700000E+01  -1.43447138E-01   0.00000000E+00
   6   1.67000000E+01  -3.32437623E-01   0.00000000E+00
   7   6.35600000E+00  -2.18659068E-01   0.00000000E+00
   8   1.31600000E+00   1.09559041E+00   0.00000000E+00
   S  1
   1   3.89700000E-01   1.00000000E+00   0.00000000E+00
   P  3
   1   2.26700000E+01   6.48340215E-02   0.00000000E+00
   2   4.97700000E+00   3.40535360E-01   0.00000000E+00
   3   1.34700000E+00   7.34646407E-01   0.00000000E+00
   P  1
   1   3.47100000E-01   1.00000000E+00   0.00000000E+00
   D  1
   1   1.64000000E+00   1.00000000E+00   0.00000000E+00

 $END
 $VEC
 1  1-1.72455418E-03-5.81323212E-02 2.17959087E-04 6.88944891E-04 2.51374807E-08
 1  2-4.18246347E-09 4.07698363E-02-3.68570489E-11 7.22135498E-12-4.73912645E-04
 1  3-1.56780997E-10 3.09475563E-11-4.86688659E-04 1.22512621E-04 1.17535060E-04
 1  4-2.40047681E-04-1.14128214E-06-4.76433525E-11 1.07374037E-11-9.97849005E-01
 1  5 1.63137936E-02 2.31384077E-02-6.13522786E-10 1.38919163E-10 3.76170565E-03
 1  6-4.68261079E-10 1.05178416E-10 1.39762247E-03-6.31502554E-05-1.07888190E-04
 1  7 1.71038445E-04-1.02577596E-05 1.09899384E-11-2.37919162E-12
 2  1-9.94338151E-01 6.33524638E-02-8.09481605E-04-4.37477924E-04 1.81133153E-09
 2  2-3.15703819E-10 8.56022854E-02-2.67616471E-12 5.18354872E-13-8.15923374E-04
 2  3-1.13380383E-11 2.21390801E-12-4.54406154E-04 7.61718457E-05 7.41289993E-05
 2  4-1.50300845E-04-4.68394925E-07-3.45919179E-12 7.39970082E-13 1.59577023E-03
 2  5-2.99898789E-04-4.51483037E-04-4.45301709E-11 9.55476830E-12 2.62545965E-03
 2  6-3.39816302E-11 7.25033029E-12 2.14205150E-03 3.37308865E-05 3.39749539E-05
 2  7-6.77058404E-05 5.59610952E-08 7.96879928E-13-1.65533928E-13
 3  1 1.05353324E-01 6.98309092E-01-3.02242707E-03-8.10854921E-03-1.12075558E-09
 3  2 5.38937673E-10 7.09998661E-01 1.70990218E-12-2.75915135E-13-1.18099831E-03
 3  3 7.43852158E-12-9.63682123E-13-1.97288232E-03-2.99172729E-04-4.00195201E-04
 3  4 6.99367930E-04-2.31629874E-05 2.37525559E-12 3.56851931E-13-1.10923031E-02
 3  5 4.34956068E-04-1.11487235E-03 3.06972650E-11 4.86827462E-12 5.67790094E-03
 3  6 2.33475648E-11 3.30411221E-12 6.58491917E-03 1.78142258E-04 1.69033683E-04
 3  7-3.47175941E-04-2.08846403E-06-5.39596727E-13-3.43616645E-14
 4  1 1.95847294E-09 4.17297263E-09 1.31665587E-12-6.14484816E-11 9.81794505E-01
 4  2-1.88974658E-01-2.25873239E-09-1.45206722E-03 2.77507489E-04 4.20849160E-11
 4  3-6.16581343E-03 1.17779701E-03 2.18128799E-11-5.61464071E-12-5.54467599E-12
 4  4 1.11593167E-11 1.72890744E-14-1.88600213E-03 3.57828015E-04 2.52063653E-08
 4  5-5.69755366E-10-7.71487197E-10-2.42865996E-02 4.60669559E-03-1.99884031E-10
 4  6-1.85294973E-02 3.51622755E-03-1.09946995E-10 1.39925706E-12 2.23631118E-12
 4  7-3.63556824E-12 1.91396014E-13 4.34104260E-04-8.25390125E-05
 5  1 1.46610890E-02-7.11852336E-01-2.88822526E-03 1.21573704E-02 2.63848245E-09
 5  2-9.44565315E-10 6.93387994E-01-4.06838043E-12 7.50415138E-13-1.03540156E-02
 5  3-1.72366556E-11 2.71484784E-12-3.95440677E-03 7.44863739E-04 7.28197521E-04
 5  4-1.47306126E-03-3.82131936E-06-5.45617016E-12-2.15382290E-14 7.25625902E-02
 5  5 4.66444683E-02 5.44649026E-02-7.02782073E-11-6.41950661E-13 3.52421980E-02
 5  6-5.35127800E-11 4.63173614E-14 2.60555076E-02 1.29089397E-04 2.21133409E-04
 5  7-3.50222806E-04 2.11043570E-05 1.24221872E-12-5.76360342E-14
 6  1 6.18420015E-12-4.93390015E-10-3.98599766E-13 7.00436479E-12 1.88693927E-01
 6  2 9.80318159E-01 4.43801825E-11 4.49465429E-05 2.44211772E-04-3.80873326E-12
 6  3 2.74812329E-04 1.47497029E-03-8.96710277E-13 4.28786469E-13 4.65145624E-13
 6  4-8.93932093E-13 7.21809613E-15 4.80316483E-04 2.52270198E-03 6.78139783E-10
 6  5 5.60651454E-13-1.52363348E-12 6.37575745E-03 3.34814508E-02 9.47254853E-12
 6  6 4.61355430E-03 2.42334629E-02 7.16720636E-12 5.49441618E-14 1.12837618E-13
 6  7-1.67781780E-13 1.43813065E-14-8.17763801E-05-4.30203261E-04
 7  1 2.59906568E-03-6.03233199E-02-2.47655770E-02-1.50365763E-02-5.36715794E-11
 7  2-7.79697915E-12 6.80979759E-02 9.81715853E-14-6.89578761E-16-3.86903491E-02
 7  3 3.41670156E-13-7.07582648E-14-1.92389045E-02 1.04498594E-02 1.07686532E-02
 7  4-2.12185126E-02 7.30947919E-05 1.09868155E-13-4.93551856E-14-1.88399934E-02
 7  5-4.81245333E-01-5.63214257E-01 1.39296795E-12-6.25513934E-13 3.33021333E-02
 7  6 1.06398406E-12-4.61676557E-13 2.72161199E-02 2.02834559E-03 1.50053858E-03
 7  7-3.52888417E-03-1.21018493E-04-2.48547716E-14 8.89114164E-15
 8  1 1.41956423E-03-1.48090785E-02 1.32284678E-01-2.88436996E-02-1.75098452E-11
 8  2-2.55108329E-14 4.59024966E-02 2.12855314E-13-1.21296347E-14 1.86832810E-01
 8  3 3.46249760E-13-4.38144888E-14 5.67311436E-02-2.69679154E-02-2.69371743E-02
 8  4 5.39050897E-02 7.04845783E-06 2.00559026E-13-2.37187083E-14-7.25885881E-03
 8  5-7.47437185E-02-9.75908155E-02 2.36942113E-12-2.38567531E-13-5.85314671E-01
 8  6 1.78955322E-12-1.83845321E-13-4.35771025E-01-6.23856203E-03-6.83704717E-03
 8  7 1.30756092E-02-1.37223963E-04-3.79269509E-14 4.33076880E-15
 9  1-3.51531353E-14 2.23889491E-13-2.03612440E-13 2.63358523E-13 3.34853495E-02
 9  2-6.40438444E-03 7.97943573E-13 5.73329482E-02-1.09681953E-02-6.11176211E-13
 9  3 7.51200488E-02-1.43709382E-02-2.12103930E-13 8.16244013E-14 8.36720967E-14
 9  4-1.65296498E-13 3.78642269E-16 5.32010580E-02-1.01777326E-02 1.90208989E-12
 9  5 3.86398471E-13 4.60917891E-13 6.24333705E-01-1.19440039E-01 1.82700647E-12
 9  6 4.71362245E-01-9.01753189E-02 1.37563919E-12 1.91071633E-14 1.97637158E-14
 9  7-3.88708791E-14 1.39973690E-16-9.75944181E-03 1.86705402E-03
10  1 2.43694759E-18-2.39296832E-17 8.06369167E-17 1.33208889E-16 2.14166125E-03
10  2 1.11952821E-02-2.40888312E-16 1.04490101E-01 5.46209693E-01-3.71966241E-16
10  3 1.04695174E-01 5.47281686E-01 1.80092965E-16 5.63534590E-17 3.60993830E-17
10  4-9.24528420E-17-3.04216297E-16-7.94708039E-03-4.15424264E-02-8.73147410E-17
10  5-2.81531503E-17 6.52873569E-17-2.18002167E-02-1.13958064E-01 7.68696996E-17
10  6-2.31230340E-02-1.20872936E-01-6.25579663E-17-4.01963951E-17 3.74176103E-17
10  7 2.77878476E-18-1.41555089E-16-4.32046990E-04-2.25847475E-03
11  1 8.65603257E-15 1.40775169E-12 7.37607478E-14 1.13759785E-13-1.05863723E-02
11  2-5.53390403E-02-6.65265115E-13 9.61979131E-03 5.02840390E-02-9.66958614E-14
11  3 1.12496884E-02 5.88034190E-02-4.34838776E-14 1.17657279E-14 1.17917031E-14
11  4-2.35574310E-14 7.21705953E-16 8.89663241E-03 4.65039752E-02 1.50653152E-13
11  5 1.47428968E-13 1.69236075E-13 1.20959017E-01 6.32274098E-01 2.48635466E-13
11  6 8.99455531E-02 4.70160975E-01 1.90809391E-13 2.21673423E-15 2.33533075E-15
11  7-4.55206498E-15-3.72117025E-17-1.75430970E-03-9.17005780E-03
12  1-3.70627330E-15-3.16049072E-14-7.07334131E-14 1.65119090E-14 3.05419093E-02
12  2 1.59653564E-01-1.80713787E-14 1.56711514E-01 8.19172346E-01-7.19399614E-14
12  3-1.43247997E-01-7.48827249E-01 2.98318114E-14-3.55236720E-14 2.78470684E-13
12  4-2.42947012E-13 2.67772906E-14-4.38666868E-02-2.29314473E-01-5.24144221E-15
12  5 9.67503876E-15 8.36336754E-14 1.19321917E-01 6.23743846E-01 1.25707643E-14
12  6-1.06005471E-01-5.54123706E-01-1.29497284E-13-2.35513735E-14 3.22067860E-14
12  7-8.65541250E-15-1.76833516E-15 1.00448547E-02 5.25086524E-02
13  1 1.77859251E-03 2.29367245E-02 5.57343453E-01 5.04642649E-01-4.24453915E-15
13  2 1.67824278E-14-8.56558761E-04-2.18710530E-14-7.98769381E-15-1.46557862E-01
13  3-2.82376206E-14-8.55669678E-15-1.20719494E-01 1.54856708E-02 2.08730556E-02
13  4-3.63587264E-02 1.23524922E-03-2.04353291E-14-7.22011048E-15 4.73735610E-04
13  5-3.38491394E-02-6.72221024E-02-2.41557672E-13-1.03009289E-13 7.43428556E-02
13  6-1.82152473E-13-7.61822347E-14 7.29266492E-02-4.98445994E-04-7.07355616E-04
13  7 1.20580161E-03-4.78999468E-05 3.73498987E-15 1.41096132E-15
14  1 3.15613538E-03 2.52395998E-02 9.33521915E-02 2.15604575E-03-1.42586027E-14
14  2-3.55954243E-14 5.68834599E-03-2.42057298E-13-1.48430529E-13 2.67022797E-01
14  3-1.35479564E-13 2.03873808E-13 2.62165602E-01-3.29752008E-01 8.19657056E-01
14  4-4.89905048E-01 2.63542831E-01-6.03080378E-14 7.03708604E-14-4.90535500E-04
14  5-1.96554766E-02-1.40184263E-02 1.96364756E-15-1.47016165E-13 9.49934499E-02
14  6 1.05903913E-13 1.08675241E-13-1.51270070E-03-1.34063293E-03-2.77217380E-03
14  7 4.11280673E-03-3.28231563E-04 1.13095680E-15-1.26920316E-14
15  1-1.02298745E-13-8.46778901E-13-1.69631568E-12 1.07523800E-12 2.14514857E-02
15  2-4.10540531E-03-2.27517706E-13 5.96854850E-01-1.14187397E-01-1.23595440E-12
15  3 4.87275992E-01-9.32079343E-02 1.37656109E-13 6.75973470E-13 7.70788710E-13
15  4-1.44676218E-12 1.20469537E-13 2.09621484E-01-4.00982283E-02-1.52330152E-13
15  5-2.09458742E-13 8.15857788E-13-8.44400512E-02 1.61468276E-02 2.13861919E-13
15  6-2.38234645E-01 4.55802242E-02-1.42014689E-12-1.54247460E-13 2.48887558E-13
15  7-9.46400981E-14 3.74236735E-14-1.13773234E-02 2.17592860E-03
16  1 8.60382028E-02 6.61563989E-01 9.99431743E-01-1.59504923E+00-2.32195869E-15
16  2-3.46791427E-15-2.20393283E-02-4.23648998E-14-1.38532227E-14-2.02388723E-01
16  3-2.24150857E-14 2.49653062E-14-7.46230083E-01 3.72153008E-01 3.45251071E-01
16  4-7.17404079E-01-6.16822416E-03-2.62641370E-14 4.62538605E-15-6.17209340E-01
16  5-1.36739982E+00 2.13418159E+00-1.60580954E-14-5.05699936E-15 2.04573187E-01
16  6 3.98421213E-14-3.51293326E-16-7.27878377E-01-3.04232423E-02-3.00493444E-02
16  7 6.04725867E-02 8.57293658E-05-2.00053361E-15-2.52373582E-16
17  1-1.07315284E-01-8.67821768E-01-1.63359098E+00 1.37009978E+00-4.11009228E-14
17  2-4.91824297E-15-4.85019906E-02-6.88115691E-13 6.58682386E-14-2.46022485E-01
17  3-4.38906914E-13 1.47259155E-13-2.01921488E-01 1.79070163E-01 1.92381487E-01
17  4-3.71451650E-01 3.05209358E-03-5.92205175E-13 1.10998637E-13-3.30351559E-01
17  5-7.78222012E-01 8.88549036E-01-4.72808041E-13 7.08840267E-14 1.75801627E-01
17  6 9.38645399E-13-1.62633363E-13-5.56370230E-01-4.51341767E-02-4.54146819E-02
17  7 9.05488586E-02-6.43157820E-05-5.72747106E-14 9.69851783E-15
18  1 5.10963641E-03 2.83767844E-02 1.30207718E-02-2.35237586E-01-5.70152825E-15
18  2-2.07900916E-14-2.58541050E-01-3.83561285E-13-3.78548753E-14-1.23018115E+00
18  3-4.84289299E-13 2.03951896E-13 9.51500614E-01 1.49591259E-01 1.13624145E-01
18  4-2.63215404E-01-8.24673749E-03-5.68959166E-13 1.14008617E-13 9.10081509E-02
18  5 2.50641078E-01-2.54039525E-01-6.08023979E-13 1.04788546E-13 4.30602527E-01
18  6 1.02409893E-12-1.94139208E-13-8.90990201E-01-6.54611592E-02-6.48002418E-02
18  7 1.30261401E-01 1.51538769E-04-6.37432548E-14 1.13579174E-14
19  1 1.35878487E-14 1.13892793E-13 2.21164100E-13-1.32867928E-13 2.15070770E-01
19  2-4.11430657E-02 9.61449908E-14 1.07745101E+00-2.06116507E-01 4.55461841E-13
19  3-1.17103920E+00 2.24019998E-01-3.40990636E-13-3.96025097E-14-4.26971116E-14
19  4 8.22996213E-14 2.92754539E-15-1.66413840E-01 3.18349642E-02 4.48419133E-14
19  5 1.05095571E-13-7.49832250E-14-2.99022430E-01 5.72033657E-02-1.40093953E-13
19  6 4.86934055E-01-9.31509182E-02 3.10732942E-13 2.31004611E-14 3.84082812E-14
19  7-6.15087423E-14 1.39343959E-15-1.58015201E-02 3.02285785E-03
20  1-1.23133073E-15-1.29119458E-14-1.85677668E-14 1.21298861E-14 2.77284006E-02
20  2 1.44946882E-01-1.48716087E-14 1.33942816E-01 7.00171918E-01-7.86046536E-14
20  3-1.64555382E-01-8.60191207E-01 7.75491286E-14-5.68000291E-16 2.54116968E-16
20  4 3.13883323E-16 5.13951055E-15-6.12049876E-02-3.19941365E-01-1.56966118E-14
20  5-3.96223060E-14 2.31828872E-14-1.33177865E-01-6.96172545E-01 1.06869127E-14
20  6 1.78574117E-01 9.33474866E-01-2.67684686E-14-1.72313990E-15-7.59140506E-15
20  7 9.31454496E-15-1.10404661E-16-8.11902381E-03-4.24413524E-02
21  1-2.71108655E-03-3.28480680E-02-1.12723540E-01-1.23616877E-01-8.71708924E-14
21  2 1.51810106E-14 8.07418994E-02-5.70476906E-13 9.96417246E-14 4.21111315E-01
21  3 2.18404617E-13-4.35919055E-14-8.11222739E-01 2.24937444E-01 1.44335370E-01
21  4-3.69272814E-01-1.84808867E-02-3.97749111E-13 4.90146108E-14 2.27381827E-01
21  5 6.41180275E-01-2.23734933E-01-6.54863604E-13 7.24515399E-14 5.64642803E-01
21  6 8.53719705E-13-9.71925693E-14-7.87348319E-01-7.66684416E-03-5.94227984E-03
21  7 1.36091240E-02 3.95417591E-04-5.73544135E-14 7.40839783E-15
22  1-6.63428094E-14-5.59316236E-13-1.09154546E-12 6.11394582E-13 7.50458866E-02
22  2-1.43566510E-02-1.48054707E-13 3.58024902E-01-6.84920488E-02-5.87198690E-13
22  3-3.25407499E-01 6.22522195E-02-7.01986133E-14 1.67956451E-13 2.14222553E-13
22  4-3.82179004E-13-3.42595088E-14 3.39422609E-01-6.49311070E-02-2.06324522E-14
22  5 2.53445958E-14 2.18589873E-13 8.56288994E-01-1.63809521E-01 1.18209152E-12
22  6-9.73158790E-01 1.86166576E-01-1.74062584E-12-2.48161653E-14-2.07364732E-13
22  7 2.32180897E-13-1.61637355E-14 5.62228056E-02-1.07555379E-02
23  1 1.64368502E-03 1.49023298E-02-3.70496580E-02-6.18245666E-02-2.23476041E-14
23  2-1.73467935E-13 2.02616907E-03-3.94853012E-13-8.92682098E-13-1.62433195E-01
23  3-2.03091961E-13 8.12602200E-13-1.40825631E-01 5.67098612E-01 1.81425034E-01
23  4-7.48523646E-01-8.84293589E-02-7.91223295E-13-1.84076481E-12 8.91018014E-02
23  5 3.02492243E-01 6.00042105E-02 5.26684640E-13-1.21326532E-13-5.73125885E-01
23  6-2.06933741E-13 5.41443878E-13 1.89904628E-01-2.12818259E-01-1.81546924E-01
23  7 3.94365183E-01 7.17006379E-03-3.34189988E-13-6.31846563E-13
24  1-2.03881434E-15-1.58581924E-14 1.00595674E-13 1.17247502E-13-1.45690517E-02
24  2-7.61581423E-02 2.62226130E-16-7.95196006E-02-4.15683089E-01 3.50040902E-13
24  3 6.31104581E-02 3.29899507E-01 2.78940993E-13-1.23621166E-12-3.49007880E-13
24  4 1.58521954E-12 1.37742572E-13-1.74819848E-01-9.13851274E-01-1.80678580E-13
24  5-6.19422021E-13-1.40760340E-13 3.21062439E-03 1.67834601E-02 1.15266964E-12
24  6 3.88524791E-02 2.03098442E-01-3.44888537E-13 4.48118671E-13 4.55439332E-13
24  7-9.03558003E-13-1.40494868E-14-6.49512711E-02-3.39524923E-01
25  1-9.89490799E-15-8.22170613E-14-1.80674453E-13 9.31508630E-14-1.28805557E-04
25  2 2.45692528E-05-2.03292336E-14-3.97063698E-02 7.59547779E-03-1.32058902E-13
25  3-4.93327677E-02 9.43770979E-03-2.30206628E-14 1.23049231E-13 1.41667818E-13
25  4-2.64717049E-13-1.98853859E-13 6.07668284E-01-1.16247088E-01 5.31453883E-15
25  5 4.23051138E-14 7.61537789E-14-1.89375358E-01 3.62273280E-02-5.59717133E-14
25  6 7.51545289E-02-1.43768657E-02-9.73356438E-14-5.13829820E-14-7.40078109E-13
25  7 7.91461091E-13-1.31114194E-14 7.82147340E-01-1.49625120E-01
26  1-2.56326129E-13-2.08415670E-12-9.31589475E-13 3.77713059E-12 3.07227719E-16
26  2 4.96389643E-15-1.13984291E-12-4.51339670E-14 2.56707023E-14-1.49749027E-12
26  3-6.40799996E-14-5.22553527E-15 6.17861682E-13 2.27459951E-01-2.27459951E-01
26  4 1.69358673E-11 6.61358734E-01 6.32852786E-14-1.96187684E-14-1.45818290E-12
26  5-5.72293063E-12-2.22412020E-12 2.75415855E-14 1.44291309E-14-6.62934084E-12
26  6-1.32139938E-14-1.74288034E-14-2.01397131E-11-2.27459951E-01 2.27459951E-01
26  7-6.65109887E-11-6.61358734E-01 2.19318798E-13-1.49621917E-13
27  1 1.20344159E-04 8.86139726E-04-2.74011655E-03-6.02281456E-03 7.17566246E-16
27  2 7.73597109E-15 1.25565939E-04 1.19084781E-13 2.04554870E-14-1.33098655E-02
27  3 1.29991920E-13-6.79183516E-14-1.90551684E-02-3.96264564E-02 2.82857086E-02
27  4 1.13407478E-02 1.55712747E-02-4.38051014E-14 3.02395901E-14 2.20264754E-03
27  5 7.96269370E-03 1.70468327E-03-8.41766490E-14 4.96476255E-14-9.60841224E-03
27  6 2.48478475E-14-4.74723951E-14 1.08443051E-03 7.67388054E-01-8.37003228E-01
27  7 6.96151741E-02-3.67863656E-01-5.54299801E-13-1.49392874E-13
28  1-5.80657821E-16-4.56723093E-15-2.55679468E-15 7.15264948E-15 5.67226900E-03
28  2 2.96511772E-02 1.14613384E-15 2.85968666E-02 1.49488367E-01 2.91714854E-14
28  3-2.75839906E-02-1.44190762E-01 1.16985795E-14 4.43427384E-12-4.50075693E-12
28  4 6.64830956E-14 1.30211900E-11 4.97120190E-02 2.59864282E-01-9.59223438E-15
28  5-3.21839215E-14-4.52711607E-15 8.66677635E-03 4.53043618E-02 6.94733340E-14
28  6-2.32601596E-02-1.21590426E-01-1.31502977E-14 4.09775212E-12-4.49462430E-12
28  7 3.96872188E-13 1.32555483E-11-1.76390957E-01-9.22062752E-01
29  1 2.96330579E-13 2.33437375E-12 2.78109451E-12-3.12093086E-12 1.13669193E-13
29  2 5.92331202E-13 1.91270034E-12 5.83535231E-13 2.98536538E-12 1.07866647E-11
29  3-5.36235416E-13-2.88346622E-12 5.10437476E-14-2.24612215E-01 2.24612214E-01
29  4 1.70249987E-11-6.53078704E-01 1.01318399E-12 5.26202658E-12-1.49766354E-12
29  5-5.33984756E-12-1.59167933E-12 1.54593865E-13 8.82139034E-13 2.86011116E-11
29  6-4.58521491E-13-2.42182645E-12 1.90383731E-11-2.24612215E-01 2.24612214E-01
29  7 1.63385554E-10-6.53078704E-01-3.58570855E-12-1.84463771E-11
30  1-4.57574389E-04-3.14145819E-03-1.49768390E-02-1.82113159E-03 3.72838609E-15
30  2 1.00435129E-14-6.91036686E-03-1.96674282E-13 9.24445115E-14-7.09374004E-02
30  3-2.58320100E-13-1.80531284E-15 7.21347031E-03 2.64718061E-01 2.46226836E-02
30  4-2.89340745E-01-5.50503887E-02-3.28110382E-13 2.53055582E-13 2.29631120E-02
30  5 8.44628567E-02 3.03355986E-02 3.16461919E-13-7.96273023E-14-1.70905286E-01
30  6-1.05092531E-13-1.21676775E-14 3.88896695E-03 5.12211775E-01 3.98641756E-01
30  7-9.10853531E-01-2.60399584E-02 1.00594242E-12-5.79813658E-13
31  1-9.55478956E-15-7.81696280E-14-1.60295932E-13 1.01001527E-13-3.92472049E-04
31  2 7.50180591E-05-2.67205254E-14-8.42896400E-02 1.61243209E-02-1.47649515E-13
31  3-1.02438616E-01 1.95968338E-02 6.13345582E-14 5.54717138E-13-1.37009879E-14
31  4-5.41016150E-13-2.61582975E-14 7.08913285E-01-1.35615296E-01 1.62783898E-14
31  5 8.50187841E-14 9.40469323E-14-1.84128114E-01 3.52235564E-02-1.71371827E-13
31  6 4.04334967E-02-7.73474557E-03-1.05915796E-13 2.20636319E-13 5.79760498E-13
31  7-8.00396817E-13 3.83484282E-14-5.95596057E-01 1.13937732E-01
32  1-5.80390211E-04-3.51112611E-03 8.58278333E-02 1.05975163E-01 2.15163920E-15
32  2 6.25885000E-15 9.85022838E-03 1.55246385E-13-4.45517026E-16 3.87635000E-01
32  3 1.57127517E-13-5.76704903E-14 3.90706365E-01 5.86105087E-01-4.39008641E-01
32  4-1.47096446E-01-2.35043713E-01-1.44146408E-13-4.47837292E-14-4.84674165E-02
32  5-1.88858592E-01-6.37817757E-02-3.88060826E-14 5.62278337E-14 2.99319618E-01
32  6-6.61120761E-16-3.11897674E-14 3.14410691E-02-3.37993005E-03-6.47615425E-02
32  7 6.81414726E-02-1.40739137E-02 2.52325930E-14 2.36558035E-14
 $END
