 $CONTRL SCFTYP=GVB RUNTYP=ENERGY ICHARG=0 MULT=2 NOSYM=1 ICUT=11
  MAXIT=500 ISPHER=1 $END
 $SYSTEM MWORDS=312 $END
 $SCF NCO=9 NPAIR=2 NSETO=1 NO(1)=1 DIRSCF=.T. $END
 $GUESS GUESS=MOREAD NORB=32 $END
 $DATA
GAMESS inp file produced by MOKIT,nif=32,nbf=32
C1   1
Si   14.         0.00000000         0.00000000         0.00000000
   S 11
   1   7.88600000E+04   2.70437361E-04   0.00000000E+00
   2   1.18200000E+04   2.09714953E-03   0.00000000E+00
   3   2.69200000E+03   1.08504941E-02   0.00000000E+00
   4   7.63400000E+02   4.36749737E-02   0.00000000E+00
   5   2.49600000E+02   1.37651657E-01   0.00000000E+00
   6   9.02800000E+01   3.16640910E-01   0.00000000E+00
   7   3.52900000E+01   4.18576915E-01   0.00000000E+00
   8   1.45100000E+01   2.10209948E-01   0.00000000E+00
   9   4.05300000E+00   1.44950585E-02   0.00000000E+00
  10   1.48200000E+00  -2.03588013E-03   0.00000000E+00
  11   2.51700000E-01   6.24183908E-04   0.00000000E+00
   S 11
   1   7.88600000E+04  -7.21209338E-05   0.00000000E+00
   2   1.18200000E+04  -5.53591991E-04   0.00000000E+00
   3   2.69200000E+03  -2.92996280E-03   0.00000000E+00
   4   7.63400000E+02  -1.17363058E-02   0.00000000E+00
   5   2.49600000E+02  -4.01797968E-02   0.00000000E+00
   6   9.02800000E+01  -1.00332066E-01   0.00000000E+00
   7   3.52900000E+01  -1.95987042E-01   0.00000000E+00
   8   1.45100000E+01  -1.02100186E-01   0.00000000E+00
   9   4.05300000E+00   5.25738870E-01   0.00000000E+00
  10   1.48200000E+00   5.91618032E-01   0.00000000E+00
  11   2.51700000E-01   3.31736350E-02   0.00000000E+00
   S 11
   1   7.88600000E+04   3.38920342E-05   0.00000000E+00
   2   1.18200000E+04   2.60443163E-04   0.00000000E+00
   3   2.69200000E+03   1.37726900E-03   0.00000000E+00
   4   7.63400000E+02   5.53476510E-03   0.00000000E+00
   5   2.49600000E+02   1.89833843E-02   0.00000000E+00
   6   9.02800000E+01   4.80756033E-02   0.00000000E+00
   7   3.52900000E+01   9.59430205E-02   0.00000000E+00
   8   1.45100000E+01   5.32749453E-02   0.00000000E+00
   9   4.05300000E+00  -3.25925649E-01   0.00000000E+00
  10   1.48200000E+00  -6.35130495E-01   0.00000000E+00
  11   2.51700000E-01   1.14075717E+00   0.00000000E+00
   S  1
   1   9.24300000E-02   1.00000000E+00   0.00000000E+00
   P  7
   1   3.15900000E+02   3.92562090E-03   0.00000000E+00
   2   7.44200000E+01   2.98739534E-02   0.00000000E+00
   3   2.34800000E+01   1.27181575E-01   0.00000000E+00
   4   8.48800000E+00   3.20866241E-01   0.00000000E+00
   5   3.21700000E+00   4.55320076E-01   0.00000000E+00
   6   1.22900000E+00   2.68498769E-01   0.00000000E+00
   7   2.96400000E-01   1.88290956E-02   0.00000000E+00
   P  7
   1   3.15900000E+02  -1.68892302E-03   0.00000000E+00
   2   7.44200000E+01  -1.24033027E-02   0.00000000E+00
   3   2.34800000E+01  -5.67214851E-02   0.00000000E+00
   4   8.48800000E+00  -1.36672303E-01   0.00000000E+00
   5   3.21700000E+00  -2.35132796E-01   0.00000000E+00
   6   1.22900000E+00  -3.92726257E-02   0.00000000E+00
   7   2.96400000E-01   1.00408176E+00   0.00000000E+00
   P  1
   1   8.76800000E-02   1.00000000E+00   0.00000000E+00
   D  1
   1   2.75000000E-01   1.00000000E+00   0.00000000E+00

F     9.         0.00000000         0.00000000         3.53000000
   S  8
   1   1.47100000E+04   7.20673709E-04   0.00000000E+00
   2   2.20700000E+03   5.55048697E-03   0.00000000E+00
   3   5.02800000E+02   2.82542077E-02   0.00000000E+00
   4   1.42600000E+02   1.06395828E-01   0.00000000E+00
   5   4.64700000E+01   2.86684201E-01   0.00000000E+00
   6   1.67000000E+01   4.48437966E-01   0.00000000E+00
   7   6.35600000E+00   2.64641181E-01   0.00000000E+00
   8   1.31600000E+00   1.53260610E-02   0.00000000E+00
   S  8
   1   1.47100000E+04  -3.21193890E-04   0.00000000E+00
   2   2.20700000E+03  -2.54619157E-03   0.00000000E+00
   3   5.02800000E+02  -1.26433595E-02   0.00000000E+00
   4   1.42600000E+02  -5.19574917E-02   0.00000000E+00
   5   4.64700000E+01  -1.43447138E-01   0.00000000E+00
   6   1.67000000E+01  -3.32437623E-01   0.00000000E+00
   7   6.35600000E+00  -2.18659068E-01   0.00000000E+00
   8   1.31600000E+00   1.09559041E+00   0.00000000E+00
   S  1
   1   3.89700000E-01   1.00000000E+00   0.00000000E+00
   P  3
   1   2.26700000E+01   6.48340215E-02   0.00000000E+00
   2   4.97700000E+00   3.40535360E-01   0.00000000E+00
   3   1.34700000E+00   7.34646407E-01   0.00000000E+00
   P  1
   1   3.47100000E-01   1.00000000E+00   0.00000000E+00
   D  1
   1   1.64000000E+00   1.00000000E+00   0.00000000E+00

 $END
 $VEC
 1  1-9.91602092E-01-1.29710379E-01 4.70876448E-04 2.01450586E-03 2.57569631E-10
 1  2-2.48516925E-10-2.18045172E-03-5.79183295E-13 2.24569926E-13-9.69603560E-06
 1  3-3.89486019E-13 5.63855480E-13 2.62814153E-05-1.46952520E-07-1.37488800E-05
 1  4 1.38958325E-05-1.81906275E-05 1.81982444E-15 7.50682497E-15-2.92695290E-03
 1  5 8.59432708E-05 1.63356935E-06 1.05395695E-12 1.96278893E-12-2.50700370E-05
 1  6 7.45397538E-13 1.34870946E-12 5.49325732E-05 8.72164700E-07 8.71311660E-07
 1  7-1.74347636E-06-1.14081639E-09-3.61501099E-16 1.81964025E-15
 2  1 1.29251999E-01-9.94049968E-01 3.85176874E-03 1.38649533E-02-3.18381058E-10
 2  2-1.21156577E-09-1.50561105E-02-1.81721147E-12-1.48128166E-12-6.15069491E-05
 2  3 1.73200850E-12 3.88196409E-12 1.66038461E-04-1.35194777E-06-8.01028039E-05
 2  4 8.14547517E-05-1.05317978E-04 1.72927629E-14 9.99068253E-15 2.37230763E-02
 2  5-3.75005324E-04-1.06989052E-03 5.12214763E-12 1.26690042E-12-1.68301473E-04
 2  6 3.51314322E-12 7.72429937E-13 3.17057703E-04 7.90330654E-06 7.85936536E-06
 2  7-1.57626719E-05-5.87650211E-08 3.21116436E-15 5.30966031E-15
 3  1-5.97442953E-03 2.29260921E-02 8.60186730E-06-3.55962588E-04-8.44475830E-09
 3  2-1.19237883E-08 1.53922519E-02-1.43817747E-11-2.33710052E-11-3.19650289E-05
 3  3 2.90635138E-11 4.23185458E-11-8.24233781E-05 2.47366909E-05 2.36491828E-05
 3  4-4.83858737E-05-1.45438601E-06 1.16854775E-13 9.78913875E-14 9.99230910E-01
 3  5-2.01160217E-02-2.42316265E-02 2.41560382E-11 1.28717846E-11-7.30394616E-05
 3  6 1.59682240E-11 7.75401022E-12-4.08208311E-05 1.05352609E-04 1.04684363E-04
 3  7-2.10036972E-04-8.93682682E-07 4.46571202E-14 5.69543010E-14
 4  1-6.46411745E-13 8.45505277E-10-4.66522415E-12-1.13262562E-11-5.49573811E-01
 4  2-8.36062432E-01 3.14828628E-10-1.03203855E-03-1.56929155E-03-3.02184326E-13
 4  3 1.92978148E-03 2.93541371E-03 4.69696431E-15-3.59947838E-13-2.48935573E-13
 4  4 6.08883411E-13 1.47169553E-13 4.92572501E-06 7.49410147E-06-1.46196151E-08
 4  5 2.93976361E-10 3.55081033E-10 7.22863325E-04 1.09983649E-03 1.28506273E-12
 4  6 4.47889401E-04 6.81484025E-04 9.95115170E-14-1.55303841E-12-1.54368213E-12
 4  7 3.09672054E-12 1.32293566E-14 2.65039601E-06 4.03173626E-06
 5  1 1.18276357E-04 1.55419171E-02-9.21953207E-05-9.92385806E-05 1.50900614E-08
 5  2-1.05437410E-08-9.99769431E-01-2.69947721E-11 1.65815574E-11 1.61448339E-03
 5  3-2.69910508E-11 1.99281696E-11 1.91561916E-03 3.93120586E-07-1.13157734E-06
 5  4 7.38456754E-07-2.03906480E-06-1.84847940E-13 1.26271308E-13 1.51112052E-02
 5  5 4.76822719E-05-3.57746386E-04-3.17670846E-11 2.14638191E-11-3.38592852E-05
 5  6-2.12562747E-11 1.43148531E-11 2.22978925E-04 1.07718137E-05 1.07439531E-05
 5  7-2.15157668E-05-3.72596669E-08-5.12038914E-14 3.65723115E-14
 6  1 2.91957260E-10 1.68325054E-10 5.39049118E-15-4.59359108E-12 8.35613953E-01
 6  2-5.49278865E-01 1.84120411E-08-1.43793235E-03 9.45691443E-04-2.96972364E-11
 6  3-1.52092415E-03 9.99528767E-04-3.53694455E-11 6.45281320E-15 6.95255109E-14
 6  4-7.59783241E-14 8.48501165E-14-1.00109248E-05 6.58095611E-06 2.20215996E-10
 6  5-1.10336539E-11-5.36537244E-12-1.69189492E-03 1.11224199E-03 6.61520141E-13
 6  6-1.12963061E-03 7.42621310E-04-4.27033744E-12-1.49940048E-13-1.49209734E-13
 6  7 2.99149782E-13 1.65607210E-16-2.84508000E-06 1.86998131E-06
 7  1 1.51034636E-12 7.13199342E-12 1.13250868E-14-9.01147198E-14 1.81824351E-03
 7  2-5.04846044E-04-1.66040635E-12-2.17764257E-03 1.54934418E-04-8.63560975E-13
 7  3 6.50529741E-03 4.16743161E-04-1.03119233E-12 6.70573476E-15 8.40634274E-15
 7  4-1.51120775E-14 2.65977691E-15 1.79392919E-03 1.56112790E-05-1.88333210E-11
 7  5 1.05493719E-12 1.23333367E-12 6.86664110E-01-8.52526929E-05 1.30452366E-12
 7  6 4.64316491E-01 8.81013467E-05 8.07346475E-13-8.56220756E-16-7.50696304E-16
 7  7 1.60691706E-15 3.11059091E-17 6.14860809E-05-6.27647205E-06
 8  1 2.25598402E-12-3.38165662E-13 3.20653433E-15 1.97579293E-15-5.04846546E-04
 8  2 1.38235670E-03 6.75789216E-13 1.54934431E-04-2.04386908E-03 1.31385845E-14
 8  3 4.16743162E-04 6.86512180E-03 1.25570132E-14-7.91464184E-17 3.58119708E-16
 8  4-2.78973290E-16 7.33127989E-17 1.56112771E-05 1.80740828E-03 3.84772473E-12
 8  5-2.13722687E-13-2.43853912E-13-8.52527019E-05 6.86590501E-01-1.44825592E-14
 8  6 8.81013812E-05 4.64392560E-01-8.96514092E-15 3.54022929E-16 3.30675796E-16
 8  7-6.84698725E-16-8.31676134E-17-6.27647180E-06 5.60668489E-05
 9  1-2.34132399E-04-2.13239649E-03-6.16636295E-03 9.44576714E-04 8.76874999E-14
 9  2-1.32311501E-13-2.05210641E-04 2.82569217E-15-3.44538988E-16-1.34487922E-02
 9  3-8.65524972E-15 1.85852484E-15-8.99601603E-03-6.04064591E-04-5.79235449E-04
 9  4 1.18330004E-03 3.32054168E-05-2.38915595E-15 3.84916723E-16 3.86823529E-02
 9  5 5.12835927E-01 5.68746846E-01-9.29105688E-13 1.81871696E-13 1.84829124E-02
 9  6-6.28441640E-13 1.22879855E-13 1.23956519E-02 6.38279182E-04 6.51928858E-04
 9  7-1.29020804E-03 1.82544841E-05-2.01545246E-16 7.64206536E-17
10  1 3.53011959E-18 1.49024577E-17-5.20391780E-17-1.19282404E-16 1.54770760E-03
10  2-1.01761426E-03-3.41870121E-18 4.29304995E-01-2.82267057E-01-4.34010150E-16
10  3 4.97183875E-01-3.26897266E-01-6.92852395E-16 2.21185588E-16-2.32443263E-16
10  4 1.12576747E-17 4.95599397E-17-1.10224758E-04 7.24725277E-05-2.17224798E-17
10  5 8.95364683E-17 6.73147107E-17-6.60168195E-03 4.34059085E-03 3.75574730E-18
10  6-5.29114337E-03 3.47891473E-03-2.04911541E-17 1.03377136E-17-4.61452096E-18
10  7-5.72319259E-18-3.67303422E-18-2.65646701E-04 1.74662102E-04
11  1-1.33941993E-06 8.33029841E-03 5.47538958E-01 5.36138467E-01 1.76696724E-15
11  2 2.90748668E-14 5.75137621E-05 5.18558581E-16-7.14129366E-17-9.16983801E-03
11  3-5.60768863E-16-3.21334251E-17-1.08244237E-02-2.82866825E-04-1.42938524E-04
11  4 4.25805349E-04 1.87133963E-04 4.54767317E-18-5.55087756E-16-1.75133438E-04
11  5-1.73044873E-03-3.30415066E-03-4.86520066E-14 1.16287109E-15 4.91521287E-03
11  6-3.34217960E-14 8.70713961E-16 2.69232301E-03-1.51835923E-04-1.50359415E-04
11  7 3.02195338E-04 1.97461840E-06 6.99817829E-18-6.27667855E-17
12  1-4.63882222E-03-3.68190088E-02-6.71219745E-02 6.63652829E-02 1.32484029E-15
12  2 7.14633074E-16-2.78158470E-03 7.65136906E-15-1.28650785E-16-2.68367623E-02
12  3-4.39382191E-15-6.26449995E-16-1.14435305E-03 5.11895423E-02-5.44437766E-01
12  4 4.93248224E-01-7.96566105E-01-2.38687870E-14-2.23916596E-14-1.93898018E-03
12  5-6.58641710E-03 2.28417258E-03 9.10257905E-14-9.04419598E-15 2.02508995E-02
12  6-1.05972091E-13 1.08183912E-14-3.31137796E-02 4.36484374E-04 4.56202252E-04
12  7-8.92686626E-04 2.63698338E-05-1.08803124E-15 3.05510647E-16
13  1 7.86335994E-04 6.04252265E-03 7.22363642E-03-1.52386066E-02-7.46528385E-15
13  2 5.38092801E-15 3.56220321E-04 7.53300098E-15 3.42073653E-15-3.36037123E-01
13  3-1.43515125E-14 3.18693256E-15-4.05891865E-01 3.08925736E-03 3.60548581E-03
13  4-6.69474317E-03 6.90381531E-04-4.99487117E-15 8.18562774E-20-1.69631013E-03
13  5-9.40156355E-03 3.18365803E-03-1.73522690E-12 1.56890280E-14 5.04163883E-01
13  6-1.17307175E-12 1.11563939E-14 3.12467491E-01 3.94247231E-04 3.89932059E-04
13  7-7.84179290E-04-5.77092400E-06-1.78967158E-16-8.77155939E-17
14  1 3.48969131E-05 2.67259935E-04-9.66426886E-03-1.05272977E-02 2.12973409E-14
14  2 3.10552554E-15-1.47172173E-03 9.07110415E-14-4.14810712E-14-3.82056674E-01
14  3-1.32320060E-13-8.46630258E-14-4.41965027E-01-1.29592913E-03 1.44668650E-02
14  4-1.31709359E-02 2.10804766E-02-1.09124158E-13 6.39357359E-15 1.00449815E-02
14  5 3.63305809E-02 9.02888688E-04 2.30532858E-12-2.41130356E-14-5.07309762E-01
14  6-2.62044986E-12 3.73502285E-14-2.97059528E-01-1.45669176E-02-1.45639818E-02
14  7 2.91308994E-02 3.92609812E-06-3.26361266E-14 5.03352348E-16
15  1-9.16572831E-04-7.29017306E-03-1.62798223E-02 1.01147471E-02 8.79109203E-15
15  2 6.11409936E-16-1.14214247E-03 6.05608722E-14-2.87538343E-14-2.73017536E-02
15  3-6.36790115E-14-2.22508095E-14-2.00097330E-02-7.41441922E-03 4.92966079E-04
15  4 6.92145314E-03 1.05749938E-02-6.56157878E-14 2.02046466E-14-2.87830741E-01
15  5-7.12042753E-01 7.00265912E-01 1.44295257E-12-3.61609654E-13-9.07656287E-03
15  6-1.64236619E-12 4.12591242E-13-1.97498946E-02 4.43922281E-01 4.43855445E-01
15  7-8.87777726E-01-8.93827649E-05-8.00614319E-15 1.32411297E-14
16  1 1.12400470E-14-2.29741807E-15-1.25268121E-14 4.72083531E-15-1.37039846E-03
16  2-9.76880011E-03 2.82258849E-15 1.78174392E-02-1.96432727E-02-3.36451594E-14
16  3 3.64215033E-02 8.53377006E-02 5.43393383E-14 1.56567622E-14-4.71960549E-14
16  4 3.15392927E-14-3.42645411E-14-1.96097753E-03 4.18664592E-02-4.12526020E-14
16  5-1.35315541E-13 1.26081329E-13 2.14505564E-03-9.14059861E-01 1.64049843E-14
16  6-3.52982633E-03 1.04081117E+00 3.13258174E-14 1.46880890E-14 9.74736756E-15
16  7-2.44354566E-14-5.13576654E-16-1.91903813E-04 1.26561435E-02
17  1 1.13817732E-14 4.61139824E-14 4.92448892E-14-1.20543146E-13-8.58554821E-03
17  2-1.37039475E-03 1.39753761E-14-3.50271166E-02 1.78173930E-02-8.57082636E-13
17  3 5.38905022E-02 3.64214072E-02-1.22502666E-12-9.85788626E-15 7.18517556E-14
17  4-6.19938693E-14 1.66586354E-13 4.35594932E-02-1.96097251E-03-2.97253582E-14
17  5-4.79025438E-14 1.46908667E-13-9.15909601E-01 2.14504312E-03-1.29904805E-12
17  6 1.04385614E+00-3.52980960E-03-7.73014083E-13 3.89110851E-13 3.84526278E-13
17  7-7.73637129E-13 2.32334566E-15 1.28218039E-02-1.91903507E-04
18  1 1.31480774E-01 1.04622015E+00 1.87837253E+00-1.90041653E+00 8.93001742E-16
18  2 4.87663301E-16 1.10912681E-02 4.53036532E-15-1.54306261E-15 5.02475653E-02
18  3-4.88741045E-15-1.32569427E-15-6.39674504E-02 4.72726667E-03-1.60684171E-02
18  4 1.13411504E-02-2.78112447E-02-4.61326561E-15 3.71680544E-16-5.33087840E-02
18  5-1.18214265E-01 1.58470595E-01 1.06164668E-13-2.32489109E-14 6.31467056E-02
18  6-1.15878730E-13 2.57403975E-14-1.40127536E-01-8.68949062E-03-8.68783148E-03
18  7 1.73773221E-02 2.21886385E-06-1.29517763E-15 2.91873223E-16
19  1 5.92629232E-03 4.71426830E-02 9.41979029E-02-7.62707556E-02-3.91550465E-15
19  2 2.40408507E-15-2.09152744E-01-3.50683552E-14 2.61038900E-14-1.05198425E+00
19  3 3.18980264E-14-1.75653017E-14 1.07454973E+00-1.24433582E-02-9.50323017E-03
19  4 2.19465884E-02 3.93199963E-03 1.79818308E-14-9.81114060E-15 2.95833208E-01
19  5 7.09392196E-01-7.75695452E-01-3.02433928E-13 2.05334255E-13-2.06305201E-01
19  6 3.42780374E-13-2.33278149E-13 3.41006407E-01 1.05017687E-01 1.05003137E-01
19  7-2.10020824E-01-1.94586150E-05 7.53395681E-15-1.25825803E-15
20  1 4.23418049E-17-1.98663687E-17 1.64152445E-16-9.25110552E-17-1.26976339E-01
20  2-1.93120578E-01 7.24714537E-16-6.50948886E-01-9.90039768E-01 1.98440900E-15
20  3 6.50675637E-01 9.89624179E-01-1.68953557E-15 1.00143584E-16-6.49073566E-16
20  4 5.48929982E-16-7.38822644E-16 3.43433575E-04 5.22333733E-04 5.60092927E-16
20  5 2.97109477E-15-2.73582498E-15 3.13228727E-02 4.76395266E-02 5.98725963E-16
20  6-4.95350452E-02-7.53387463E-02-7.52762541E-16 6.38956495E-16 2.87624524E-16
20  7-9.26581019E-16 2.64910197E-16 2.74561212E-03 4.17585029E-03
21  1-6.81080842E-17-3.00292531E-16 1.38734399E-16-3.19041348E-16 1.95292591E-01
21  2-1.28404432E-01-1.00216497E-14 1.00610599E+00-6.61512387E-01-5.30382189E-14
21  3-9.73816319E-01 6.40282001E-01 5.15787547E-14-1.65766335E-16 2.11323821E-15
21  4-1.94747188E-15 2.95633501E-15-6.00897106E-04 3.95087277E-04-1.83904210E-14
21  5-5.07652233E-14 4.60597162E-14-3.46952250E-02 2.28120574E-02-1.40673596E-14
21  6 5.99066142E-02-3.93884922E-02 2.14188609E-14-1.26911924E-14-1.30772370E-14
21  7 2.57684294E-14-8.24230663E-17-4.18043051E-03 2.74862314E-03
22  1 2.39544272E-03 1.90261395E-02 3.66615528E-02-3.22214289E-02 1.33699974E-14
22  2-8.21146854E-15 9.90936104E-02 5.15107521E-14-2.04985188E-14 5.19769943E-01
22  3-4.97184523E-14 3.02172361E-14-4.83523861E-01-3.82003690E-03-3.87447262E-03
22  4 7.69450952E-03-7.27999696E-05 2.73604987E-14-1.43312501E-14 4.73524168E-01
22  5 1.18279152E+00-1.12713398E+00-2.56148816E-13 2.31319240E-13 1.84991331E-01
22  6 2.92394348E-13-2.64231594E-13-2.63951533E-01 2.02742416E-01 2.02711839E-01
22  7-4.05454255E-01-4.08920304E-05 1.19934372E-14-3.62393777E-16
23  1-3.17592351E-03-2.52462001E-02-5.97884821E-02 3.16853548E-02-6.85489540E-16
23  2 1.15235831E-16-5.60915145E-02-3.16309138E-15-9.75056815E-16-3.30743291E-01
23  3 2.30063652E-15-1.06573555E-16 2.28386681E-01 2.84998566E-02 4.01692770E-02
23  4-6.86691336E-02 1.56061762E-02-2.15717273E-15 1.56108279E-15-3.09994435E-02
23  5-8.16939776E-02 6.33905580E-02-1.90016917E-14-1.96656588E-14 8.54207770E-01
23  6 2.11526324E-14 2.29055979E-14-9.89547096E-01-2.23445615E-02-2.23400688E-02
23  7 4.46846303E-02 6.00821406E-06-1.19385586E-15-1.24325123E-16
24  1 2.44547960E-16 5.10664902E-16 3.55389527E-15-2.96147875E-15-5.27926731E-04
24  2 3.47111397E-04 1.25996353E-15-3.31843280E-03 2.18186239E-03 7.26806413E-15
24  3 1.86898832E-03-1.22886372E-03-4.30578109E-15-1.53762357E-14 1.17107345E-13
24  4-1.01731109E-13-8.54923674E-14-7.90924415E-01 5.20030970E-01 1.78189516E-14
24  5 3.48940536E-14-3.34201668E-14-3.67765048E-02 2.41805339E-02-4.88977075E-15
24  6 4.56782313E-02-3.00334089E-02 2.63857837E-15-1.29492055E-14 5.04522500E-15
24  7 7.90398051E-15-3.76138216E-14-2.66785194E-01 1.75410648E-01
25  1 2.73776313E-16-2.52416698E-16-1.30681586E-15 1.79554031E-15 4.39674429E-04
25  2 6.68709518E-04-6.75893331E-16 4.12726096E-03 6.27722986E-03-2.70836639E-15
25  3-6.01228862E-05-9.14452591E-05 6.14062007E-16 2.71868356E-13-4.33955914E-13
25  4 1.62087558E-13 2.39893298E-13 5.15407427E-01 7.83892378E-01-5.04652290E-15
25  5-8.36758445E-15 7.33301415E-15 2.23820038E-02 3.40412876E-02 7.20457640E-15
25  6-2.80086187E-02-4.25989223E-02-4.95694982E-15 5.26238147E-14-6.48159176E-14
25  7 1.21921029E-14 2.39437233E-14 1.88789679E-01 2.87133597E-01
26  1-3.80097231E-15-3.31805762E-13 1.08355247E-11 1.08023927E-11-1.34324063E-15
26  2-6.18105060E-16-4.54966714E-15-6.65067329E-15-4.06351413E-15-5.62246739E-14
26  3 3.49178018E-16-7.24023481E-16-2.08412623E-14 5.62220487E-01-5.62220487E-01
26  4 4.29756217E-12 2.80264562E-01 5.17588137E-13 1.81147508E-13-9.00539753E-14
26  5-3.54663652E-13 1.87995842E-14 9.60628585E-15 5.96669639E-15 1.12928996E-12
26  6-1.34635541E-14-7.45106881E-15-2.93813284E-13-5.62220487E-01 5.62220487E-01
26  7 2.94093058E-12-2.80264562E-01-2.07706060E-12-1.03895118E-12
27  1-1.32183143E-07-9.67410379E-07-5.78301710E-06-1.99306538E-06-2.35061217E-17
27  2-2.68912298E-17-3.15122681E-06-6.90375458E-16-4.72624373E-16-3.72715603E-05
27  3-1.21771215E-17-3.71027230E-16-9.94123752E-06-4.84110247E-03-2.12650826E-03
27  4 6.96761073E-03 3.63038058E-03 6.05062074E-14 2.56927341E-15-1.46237999E-05
27  5-4.55631051E-05 2.40503572E-05 2.94525968E-16 6.47005372E-16 2.77391433E-04
27  6-5.84051785E-16-8.30621010E-16-1.79531042E-04 3.43109244E-01-3.43371060E-01
27  7 2.61816042E-04-9.18068956E-01-1.07648367E-13-6.68183277E-14
28  1 3.24544086E-15 3.32117398E-13-1.08362440E-11-1.08041442E-11 9.07909655E-16
28  2 6.35689311E-16 4.83077976E-15 8.06037962E-15 5.03904642E-15 5.88844096E-14
28  3-5.49969381E-16 6.81284040E-16 2.01022302E-14-5.62215923E-01 5.62215923E-01
28  4-3.80578651E-12-2.80262286E-01-5.90544111E-13-2.17555824E-13 8.84024214E-14
28  5 3.43177469E-13-2.46229428E-14-1.16661369E-14-7.29717820E-15-1.10563037E-12
28  6 1.60620288E-14 9.09486726E-15 2.88467810E-13-5.62215923E-01 5.62215923E-01
28  7-3.15015181E-12-2.80262286E-01 2.53748495E-12 1.32057166E-12
29  1-1.99885559E-16 4.38827193E-17 3.67838425E-16-2.16134566E-16 2.91411684E-04
29  2-1.91602452E-04 1.29470320E-16 2.25371597E-03-1.48181313E-03 7.37077632E-16
29  3-5.83228378E-04 3.83470580E-04-2.93808293E-16 1.51281965E-12-1.47985691E-12
29  4-3.29627392E-14 7.27573706E-13-2.66877251E-01 1.75471190E-01 2.81155542E-16
29  5 3.34040980E-15-2.84318205E-15-2.09420269E-03 1.37693976E-03-1.40955557E-15
29  6 3.60650163E-03-2.37127386E-03 7.83200478E-16 1.49681592E-13-1.55669531E-13
29  7 5.98793826E-15 3.72824058E-15 7.91755053E-01-5.20577164E-01
30  1 4.82837995E-16-6.29994151E-17-5.19575383E-16-3.98339362E-16 1.89532388E-04
30  2 2.88263091E-04-1.96452641E-16 1.88906780E-03 2.87311627E-03-2.62925188E-15
30  3 5.93564556E-05 9.02766360E-05-9.37285511E-16 2.19199727E-12-2.71683886E-12
30  4 5.24841595E-13 1.56338507E-12-1.88849440E-01-2.87224470E-01-1.13550351E-15
30  5-3.24016480E-15 4.10636406E-17-1.40292374E-03-2.13374158E-03 2.09851608E-14
30  6 2.46855795E-03 3.75448515E-03-1.31845042E-14 2.98607347E-13-3.23253224E-13
30  7 2.46458768E-14 2.95127712E-14 5.15871920E-01 7.84598763E-01
31  1-1.77291358E-05-1.39141914E-04-8.63780040E-04-3.49483912E-04 2.93529972E-16
31  2-3.48366623E-16-3.58569754E-04-9.01853885E-16-1.67139860E-15-4.54546459E-03
31  3-8.91400329E-17 1.25085705E-17-1.54837386E-03-6.03659961E-01-2.63633917E-01
31  4 8.67293878E-01 4.54736070E-01-7.24238754E-14 1.06806030E-13-1.83867438E-03
31  5-7.05601452E-03 1.67219450E-03 7.88214416E-15 2.13084384E-15 3.47911721E-02
31  6-8.46724411E-15-3.07727661E-15-2.18508712E-02-1.22579991E-02-6.75271223E-03
31  7 1.90107113E-02 7.36253162E-03-3.47676042E-13-5.27514697E-13
32  1-2.38169919E-16 9.82793097E-16 3.15155091E-15-4.35674198E-15-5.10814997E-03
32  2-7.76907880E-03 1.23797286E-15-3.06864706E-01-4.66716012E-01-3.02360796E-15
32  3-3.00175357E-01-4.56542036E-01-8.70981315E-15 2.83054508E-15-5.74992626E-15
32  4 2.91938118E-15 2.89996923E-15 4.85516982E-03 7.38432904E-03 8.73903762E-15
32  5 1.60922569E-14-1.50221103E-14-4.79828045E-02-7.29782019E-02-1.67501495E-15
32  6 6.33577037E-02 9.63622070E-02 1.97685332E-15 6.09701385E-15 4.77301485E-15
32  7-1.08700287E-14 6.90350971E-16 2.71316174E-03 4.12650025E-03
 $END
