 $CONTRL SCFTYP=GVB RUNTYP=ENERGY ICHARG=0 MULT=2 NOSYM=1 ICUT=11
  MAXIT=500 ISPHER=1 $END
 $SYSTEM MWORDS=312 $END
 $SCF NCO=9 NPAIR=2 NSETO=1 NO(1)=1 DIRSCF=.T. $END
 $GUESS GUESS=MOREAD NORB=32 $END
 $DATA
GAMESS inp file produced by MOKIT,nif=32,nbf=32
C1   1
Si   14.         0.00000000         0.00000000         0.00000000
   S 11
   1   7.88600000E+04   2.70437361E-04   0.00000000E+00
   2   1.18200000E+04   2.09714953E-03   0.00000000E+00
   3   2.69200000E+03   1.08504941E-02   0.00000000E+00
   4   7.63400000E+02   4.36749737E-02   0.00000000E+00
   5   2.49600000E+02   1.37651657E-01   0.00000000E+00
   6   9.02800000E+01   3.16640910E-01   0.00000000E+00
   7   3.52900000E+01   4.18576915E-01   0.00000000E+00
   8   1.45100000E+01   2.10209948E-01   0.00000000E+00
   9   4.05300000E+00   1.44950585E-02   0.00000000E+00
  10   1.48200000E+00  -2.03588013E-03   0.00000000E+00
  11   2.51700000E-01   6.24183908E-04   0.00000000E+00
   S 11
   1   7.88600000E+04  -7.21209338E-05   0.00000000E+00
   2   1.18200000E+04  -5.53591991E-04   0.00000000E+00
   3   2.69200000E+03  -2.92996280E-03   0.00000000E+00
   4   7.63400000E+02  -1.17363058E-02   0.00000000E+00
   5   2.49600000E+02  -4.01797968E-02   0.00000000E+00
   6   9.02800000E+01  -1.00332066E-01   0.00000000E+00
   7   3.52900000E+01  -1.95987042E-01   0.00000000E+00
   8   1.45100000E+01  -1.02100186E-01   0.00000000E+00
   9   4.05300000E+00   5.25738870E-01   0.00000000E+00
  10   1.48200000E+00   5.91618032E-01   0.00000000E+00
  11   2.51700000E-01   3.31736350E-02   0.00000000E+00
   S 11
   1   7.88600000E+04   3.38920342E-05   0.00000000E+00
   2   1.18200000E+04   2.60443163E-04   0.00000000E+00
   3   2.69200000E+03   1.37726900E-03   0.00000000E+00
   4   7.63400000E+02   5.53476510E-03   0.00000000E+00
   5   2.49600000E+02   1.89833843E-02   0.00000000E+00
   6   9.02800000E+01   4.80756033E-02   0.00000000E+00
   7   3.52900000E+01   9.59430205E-02   0.00000000E+00
   8   1.45100000E+01   5.32749453E-02   0.00000000E+00
   9   4.05300000E+00  -3.25925649E-01   0.00000000E+00
  10   1.48200000E+00  -6.35130495E-01   0.00000000E+00
  11   2.51700000E-01   1.14075717E+00   0.00000000E+00
   S  1
   1   9.24300000E-02   1.00000000E+00   0.00000000E+00
   P  7
   1   3.15900000E+02   3.92562090E-03   0.00000000E+00
   2   7.44200000E+01   2.98739534E-02   0.00000000E+00
   3   2.34800000E+01   1.27181575E-01   0.00000000E+00
   4   8.48800000E+00   3.20866241E-01   0.00000000E+00
   5   3.21700000E+00   4.55320076E-01   0.00000000E+00
   6   1.22900000E+00   2.68498769E-01   0.00000000E+00
   7   2.96400000E-01   1.88290956E-02   0.00000000E+00
   P  7
   1   3.15900000E+02  -1.68892302E-03   0.00000000E+00
   2   7.44200000E+01  -1.24033027E-02   0.00000000E+00
   3   2.34800000E+01  -5.67214851E-02   0.00000000E+00
   4   8.48800000E+00  -1.36672303E-01   0.00000000E+00
   5   3.21700000E+00  -2.35132796E-01   0.00000000E+00
   6   1.22900000E+00  -3.92726257E-02   0.00000000E+00
   7   2.96400000E-01   1.00408176E+00   0.00000000E+00
   P  1
   1   8.76800000E-02   1.00000000E+00   0.00000000E+00
   D  1
   1   2.75000000E-01   1.00000000E+00   0.00000000E+00

F     9.         0.00000000         0.00000000         3.00000000
   S  8
   1   1.47100000E+04   7.20673709E-04   0.00000000E+00
   2   2.20700000E+03   5.55048697E-03   0.00000000E+00
   3   5.02800000E+02   2.82542077E-02   0.00000000E+00
   4   1.42600000E+02   1.06395828E-01   0.00000000E+00
   5   4.64700000E+01   2.86684201E-01   0.00000000E+00
   6   1.67000000E+01   4.48437966E-01   0.00000000E+00
   7   6.35600000E+00   2.64641181E-01   0.00000000E+00
   8   1.31600000E+00   1.53260610E-02   0.00000000E+00
   S  8
   1   1.47100000E+04  -3.21193890E-04   0.00000000E+00
   2   2.20700000E+03  -2.54619157E-03   0.00000000E+00
   3   5.02800000E+02  -1.26433595E-02   0.00000000E+00
   4   1.42600000E+02  -5.19574917E-02   0.00000000E+00
   5   4.64700000E+01  -1.43447138E-01   0.00000000E+00
   6   1.67000000E+01  -3.32437623E-01   0.00000000E+00
   7   6.35600000E+00  -2.18659068E-01   0.00000000E+00
   8   1.31600000E+00   1.09559041E+00   0.00000000E+00
   S  1
   1   3.89700000E-01   1.00000000E+00   0.00000000E+00
   P  3
   1   2.26700000E+01   6.48340215E-02   0.00000000E+00
   2   4.97700000E+00   3.40535360E-01   0.00000000E+00
   3   1.34700000E+00   7.34646407E-01   0.00000000E+00
   P  1
   1   3.47100000E-01   1.00000000E+00   0.00000000E+00
   D  1
   1   1.64000000E+00   1.00000000E+00   0.00000000E+00

 $END
 $VEC
 1  1 9.89846314E-01 1.42539674E-01-4.96355796E-04-2.21132558E-03 8.02915346E-09
 1  2-1.44614014E-09 4.63373869E-03 1.47676846E-11-2.12107666E-12 3.02383741E-05
 1  3-2.87315550E-11 4.86174932E-12-6.45831545E-05 2.93046809E-05-4.34201998E-06
 1  4-2.49626609E-05-6.46246137E-06-3.13569589E-13 2.24255176E-14 2.06250149E-03
 1  5-8.21196719E-05 1.17582541E-04-2.56671714E-11 1.36561820E-12 3.60852618E-05
 1  6-1.64876040E-11 7.05342104E-13-6.30360601E-05-1.52150691E-06-1.54860917E-06
 1  7 3.07011608E-06-5.20548306E-09-9.50589982E-14 1.63271697E-14
 2  1 1.38800493E-01-9.71877647E-01 3.65294037E-03 1.36116661E-02 3.58755388E-10
 2  2-1.38142301E-10-2.13743085E-02 7.03268513E-13 4.12873725E-14-2.11857109E-04
 2  3-1.29874331E-12 3.00488883E-13 3.43979480E-04-1.47098753E-04 2.82848561E-05
 2  4 1.18813897E-04 3.36856146E-05-1.28149353E-14-2.82652294E-14 2.03072576E-01
 2  5-4.03030859E-03-6.07789948E-03-1.03822572E-12-2.74996500E-12-2.90051169E-04
 2  6-6.58067966E-13-1.94091910E-12 2.86927886E-04 2.64027984E-05 2.75159567E-05
 2  7-5.39187551E-05 2.13802317E-07-4.48265306E-15 1.20251784E-15
 3  1-3.09205089E-02 2.00215155E-01-5.94921048E-04-2.76701659E-03 8.45421310E-10
 3  2-1.00857830E-10 4.21856020E-02 1.52860451E-12-3.01517102E-13-1.00180741E-04
 3  3-3.02249321E-12 3.77834378E-13-1.48650122E-04 5.81994716E-05 4.22594494E-05
 3  4-1.00458921E-04-3.06157142E-06-3.85584791E-14-2.32481148E-14 9.78113193E-01
 3  5-1.96806092E-02-2.36418141E-02-3.21867743E-12-2.21938856E-12-2.15120094E-04
 3  6-2.09759902E-12-1.57337642E-12-9.52958781E-05 9.99091446E-05 1.03694862E-04
 3  7-2.03604007E-04 7.27116006E-07-1.03464977E-14 1.87806970E-15
 4  1 8.09622163E-09 9.79640591E-10-3.26582969E-12-1.53201325E-11-9.87603505E-01
 4  2 1.60167564E-01-3.62872259E-10-1.80619434E-03 2.92192218E-04 7.29169091E-13
 4  3 3.53133486E-03-5.72347443E-04 3.37049671E-13 2.33092726E-13 1.77824276E-14
 4  4-2.50875154E-13-4.12272051E-14 3.94392866E-05-6.39669514E-06 9.40702364E-10
 4  5-1.91379651E-11-2.19240078E-11 3.23607856E-03-5.24791612E-04 3.00564101E-14
 4  6 2.08374705E-03-3.37935973E-04-4.37453786E-13 8.74560962E-14 9.12034318E-14
 4  7-1.78659528E-13 5.23192556E-16 1.16847643E-05-1.89426331E-06
 5  1-3.00805987E-04-2.97521763E-02 1.74671158E-04 9.55461377E-05-6.17409379E-10
 5  2-1.12608145E-09 9.98894428E-01-4.30033286E-13 2.24589262E-12-1.50681542E-03
 5  3 1.84495156E-12 1.93163932E-12-2.01176286E-03 4.80856162E-06-1.46763738E-05
 5  4 9.86781217E-06-3.74243652E-06 1.51603656E-14 5.04535022E-14-3.70946466E-02
 5  5 1.33968277E-05 5.73536896E-04 1.08407043E-12 3.75036727E-12-6.82544727E-05
 5  6 6.61875621E-13 2.52736751E-12-1.17858601E-04-2.08839469E-05-2.12188639E-05
 5  7 4.21028108E-05-6.43269070E-08 6.65451085E-15 8.85382128E-15
 6  1-1.52373997E-10 9.96183267E-11-4.55191668E-13-9.75096124E-13-1.60081326E-01
 6  2-9.87070404E-01-1.20656107E-09 2.83440117E-04 1.75222831E-03 1.83255368E-12
 6  3 2.91368948E-04 1.79439304E-03 2.41354750E-12 2.79495578E-15 1.72801070E-14
 6  4-2.00750628E-14 3.06992418E-15 6.79627140E-06 4.19096504E-05 6.36059701E-11
 6  5-2.33522843E-13-8.94789826E-13 5.01823014E-04 3.09411794E-03 9.44172691E-14
 6  6 3.36356924E-04 2.07400382E-03 1.26863962E-13 2.95741148E-14 3.04465723E-14
 6  7-6.00206871E-14 2.91091598E-16 1.30548323E-06 8.04506459E-06
 7  1 5.43409385E-12-3.10655280E-12-1.39847496E-15 3.04384181E-14-9.64937931E-06
 7  2 3.24926757E-03-2.58304770E-13-1.59175251E-04-2.22927806E-03 2.78877354E-13
 7  3-4.08808103E-04 1.18892422E-02 3.24511782E-13-7.82907400E-15-4.93489120E-15
 7  4 1.27639652E-14 9.31809389E-16-2.76812040E-05 5.97411999E-03 4.65429409E-12
 7  5-2.61980655E-13-3.27296300E-13 8.06305337E-05 6.84759266E-01-4.38817083E-13
 7  6-6.54109238E-05 4.65933432E-01-2.84035739E-13-4.85082595E-16-4.86106437E-16
 7  7 9.71189032E-16-2.72325846E-17 6.42960799E-06-3.13718581E-04
 8  1-9.93535591E-13 1.57788981E-13 1.23936125E-15-1.37473115E-15 3.30728029E-03
 8  2-9.65623863E-06 1.37316859E-12-1.27232763E-03-1.59175244E-04 7.69388770E-15
 8  3 1.43469677E-02-4.08808064E-04 6.31268134E-15 1.61588961E-16 2.89422708E-16
 8  4-4.51011669E-16 2.34909387E-16 6.14053743E-03-2.76812011E-05 5.52930044E-13
 8  5-2.97938679E-14-3.45129428E-14 6.84274521E-01 8.06304501E-05 1.59530503E-14
 8  6 4.66326677E-01-6.54106012E-05 1.11189354E-14 2.97025220E-17 3.34100642E-17
 8  7-6.31125862E-17 3.08739708E-18-3.52372933E-04 6.42960798E-06
 9  1-3.10526295E-04-3.36417774E-03-1.18418973E-02-1.75902030E-03-3.72726138E-13
 9  2 3.79607149E-13 3.42413670E-04-1.74909125E-15-1.42140177E-15-2.48832108E-02
 9  3 2.61815840E-16 3.23682150E-15-2.14885987E-02-9.62914969E-04-1.20858037E-03
 9  4 2.17149534E-03-4.71845129E-05 1.19161910E-16 2.21860227E-15 3.82651812E-02
 9  5 5.11322548E-01 5.70524883E-01 2.34716822E-14 2.49922636E-13 4.28406956E-02
 9  6 1.59979853E-14 1.70336774E-13 2.93111069E-02 7.11243211E-04 6.45924629E-04
 9  7-1.35716784E-03-1.25456225E-05 3.15238165E-16-1.71609242E-16
10  1-1.71600585E-16-1.11566475E-15-2.52400617E-15 2.25563241E-15 4.50522427E-04
10  2 2.78148124E-03-1.94164522E-16 8.29500451E-02 5.12125436E-01-3.52572434E-15
10  3 9.44046158E-02 5.82844832E-01-3.28074205E-15 1.34757995E-16-3.11078092E-16
10  4 1.76320097E-16 4.99144529E-16-3.74842582E-04-2.31424131E-03-2.87237087E-17
10  5 5.91356275E-16 1.41480007E-16-2.95413752E-03-1.82385550E-02-3.90575272E-16
10  6-2.74291495E-03-1.69344877E-02-2.22999941E-16 1.01780272E-17 1.34347062E-17
10  7-2.36127334E-17-8.82021086E-18-1.20158051E-04-7.41844015E-04
11  1 4.04305031E-04 1.13742896E-02 5.52876865E-01 5.29988114E-01-3.06756007E-14
11  2 3.69345647E-15 3.97929719E-04-1.05182310E-15 1.30102070E-16-2.55371707E-02
11  3-8.13999870E-16 7.73760517E-16-3.24111219E-02 3.64159108E-04 1.41447944E-05
11  4-3.78303902E-04-6.72265879E-05-3.57078145E-16 4.87797697E-16-2.03910342E-04
11  5-3.20591882E-03-8.97353990E-03-8.18047761E-16 3.20956400E-14 1.02701182E-02
11  6 3.54828739E-16 2.20354676E-14 6.66041646E-03-3.54757597E-04-3.68535376E-04
11  7 7.23292973E-04-2.64627319E-06 1.68890960E-17 1.31652890E-16
12  1-6.21086435E-03-4.93671530E-02-9.25944672E-02 8.60982299E-02 1.01603205E-15
12  2-2.01516464E-15-4.97848266E-03-6.48848126E-15-2.24295018E-15-6.05383860E-02
12  3-7.56505741E-15 6.60959773E-15-1.79293997E-02-9.51551328E-01 4.73690362E-01
12  4 4.77860966E-01 2.73743610E-01 6.26951578E-14-3.63667829E-15-5.82160030E-03
12  5-2.05973976E-02 5.59355144E-03 7.30755775E-15-4.02666180E-14 5.19020070E-02
12  6-7.32847935E-15 4.99365844E-14-7.57695025E-02-5.92682430E-04-6.88938870E-04
12  7 1.28162130E-03-1.84878015E-05-3.55430733E-16 1.74313997E-15
13  1 8.49348143E-04 6.38697628E-03 3.00720705E-04-2.36966388E-02 3.02237945E-14
13  2-2.59002780E-14-2.44836364E-04-1.22241360E-14-1.77364902E-15-3.15549466E-01
13  3-1.49966042E-14 1.01337273E-14-3.71116276E-01 9.33314600E-03 6.91842320E-03
13  4-1.62515692E-02-4.63791470E-04-5.13115793E-16 5.06734190E-15-3.78522095E-03
13  5-2.51052367E-02 3.47439959E-03-6.64152753E-15 5.72765556E-13 5.08386570E-01
13  6-3.84591817E-15 3.90211268E-13 3.30149019E-01 1.06062134E-03 1.09392328E-03
13  7-2.15454462E-03 6.39624464E-06 5.19206860E-17-3.71831593E-16
14  1 9.05439322E-04 7.07914032E-03-1.60966831E-02-4.17889571E-02 2.68503346E-15
14  2-9.14857443E-15-1.03653897E-03-2.92103029E-14-5.28617161E-14-3.97771602E-01
14  3-6.93857151E-14 3.55897433E-14-4.68937054E-01 6.60068110E-02-2.55750193E-02
14  4-4.04317917E-02-1.75899576E-02-1.53718444E-14 1.26902380E-13 2.24697277E-02
14  5 8.13686056E-02 8.03862911E-03 1.01922871E-13-7.08576510E-13-5.09403829E-01
14  6-7.32576199E-14 8.14372753E-13-2.72568748E-01-3.19519054E-02-3.20286076E-02
14  7 6.39805130E-02-1.47320353E-05-9.23041741E-15 3.39942765E-14
15  1-2.77085456E-03-2.21011679E-02-4.99733040E-02 2.98008520E-02-2.71050783E-14
15  2-8.86516148E-15-3.62613816E-03 1.06640868E-14-1.21916495E-13-6.81614451E-02
15  3 3.69508738E-13-6.23144447E-15-4.28757416E-02 2.19457075E-02-3.57326179E-02
15  4 1.37869104E-02-1.10781723E-02 2.32172575E-13 1.89644422E-13-2.92146638E-01
15  5-7.21587229E-01 7.14034575E-01-1.49101095E-12-1.04184949E-12-5.35119390E-03
15  6 1.62194917E-12 1.18182150E-12-5.99567128E-02 4.38983281E-01 4.40162374E-01
15  7-8.79145655E-01 2.26466377E-04 1.49482160E-13 7.34477552E-14
16  1 1.12554018E-14-7.01533217E-14-1.58551544E-13 9.93167437E-14-2.02515782E-02
16  2 1.48820701E-03-3.61691741E-14 2.08851220E-02-1.51447113E-02-2.38420947E-13
16  3 2.48472083E-01-3.44438073E-02 8.28684224E-14 1.17548115E-13-1.36188539E-13
16  4 1.86404241E-14-8.92075814E-14 1.38542567E-01 3.40618505E-03-1.09300123E-12
16  5-2.66957431E-12 2.71801004E-12-8.72798118E-01-5.12843365E-03 1.01826291E-13
16  6 9.74373896E-01 8.12879621E-03-7.86018030E-14 1.64370763E-12 1.65325113E-12
16  7-3.29695876E-12-3.38967821E-15 4.05813254E-02 7.22303452E-04
17  1 4.26764726E-14-4.05389868E-14-8.35073085E-14 1.26939476E-13 1.48821263E-03
17  2-1.13046192E-02 1.46624977E-14-1.51447635E-02-7.01640565E-02 3.22521144E-13
17  3-3.44439311E-02 4.13984735E-02 3.49002423E-13 1.54604742E-14-4.64949549E-14
17  4 3.10344807E-14-2.18453719E-15 3.40619145E-03 1.59020844E-01-5.28262946E-13
17  5-1.29879896E-12 1.22674841E-12-5.12841025E-03-9.03632845E-01 4.80047381E-13
17  6 8.12877683E-03 1.02324706E+00 1.92648083E-13 7.03100059E-13 7.09071181E-13
17  7-1.41217124E-12-4.02276650E-15 7.22304422E-04 4.49239131E-02
18  1 1.32352641E-01 1.05304331E+00 1.87613146E+00-1.92759229E+00-1.73293781E-14
18  2-4.20666328E-15 3.63411138E-02 1.20496888E-14-5.21564533E-14 1.54891285E-01
18  3 2.20560053E-13-1.39470682E-14-2.25139381E-01-1.89168955E-02 4.66353931E-02
18  4-2.77184976E-02 1.25905103E-02 1.37358676E-13 8.56601689E-14-1.30276314E-01
18  5-2.87945885E-01 4.07291123E-01-8.43338321E-13-4.86701655E-13 1.20470216E-01
18  6 9.34414843E-13 5.47527092E-13-2.76339039E-01-1.89065563E-02-1.89531732E-02
18  7 3.78597295E-02-8.95363907E-06 3.80946172E-14 2.41654462E-14
19  1 1.71717241E-02 1.36844925E-01 2.73128328E-01-2.20693736E-01 5.15379001E-14
19  2 1.03954144E-14-2.12637438E-01-3.38748808E-14 1.32522700E-13-1.03579944E+00
19  3-6.86997756E-13 6.16290829E-14 1.13970071E+00-4.76733266E-02-5.58547114E-02
19  4 1.03528038E-01-1.57138387E-03-4.14020950E-13-2.43598941E-13 3.16422127E-01
19  5 7.42842242E-01-8.91246702E-01 2.65790621E-12 1.30055217E-12-2.16777858E-01
19  6-2.94500005E-12-1.47908442E-12 3.94784300E-01 1.03436596E-01 1.03691614E-01
19  7-2.07128210E-01 4.89808029E-05-1.04049426E-13-6.29788469E-14
20  1 9.74582210E-16 1.22393821E-16 6.44691096E-16-1.40211721E-16-2.27589212E-01
20  2 3.68631074E-02 2.49674552E-16-1.16306522E+00 1.88384140E-01 3.15124659E-16
20  3 1.17038598E+00-1.89569899E-01-4.57336796E-16 2.00716401E-16 1.07920743E-15
20  4-1.27992383E-15-3.40686964E-17 7.15496555E-03-1.15890369E-03 1.13540637E-14
20  5 2.46845528E-14-2.47944105E-14 1.17800986E-01-1.90804822E-02-1.93903882E-15
20  6-1.88598148E-01 3.05476497E-02 2.03761435E-15-1.75812067E-14-1.76321146E-14
20  7 3.52133213E-14-1.92555761E-18 1.13353379E-02-1.83600837E-03
21  1-9.77996392E-16 1.99914182E-15 6.50475634E-15-5.45350521E-15-3.74171102E-02
21  2-2.31009567E-01 5.70514370E-15-1.92126664E-01-1.18617120E+00 3.36415867E-14
21  3 1.87283349E-01 1.15626898E+00-2.72316206E-14-1.72788585E-15 4.58243170E-15
21  4-2.85454585E-15 1.18055518E-15 1.24227641E-03 7.66966107E-03 4.81181834E-14
21  5 1.17732315E-13-1.12571897E-13 1.09583698E-02 6.76561042E-02 4.15227378E-15
21  6-2.10152210E-02-1.29746144E-01-8.38311074E-15-5.22310375E-14-5.23364145E-14
21  7 1.04567452E-13-1.43656360E-16 1.92966486E-03 1.19135524E-02
22  1-4.31403969E-03-3.41691942E-02-6.13019851E-02 6.27883294E-02-6.14222022E-14
22  2-2.40606471E-14-9.01738722E-02 5.17224412E-14-2.18135840E-13-4.67864639E-01
22  3 8.30165537E-13-2.10108763E-14 4.49223530E-01-5.15455120E-03 7.79421852E-03
22  4-2.63966732E-03 2.48704693E-03 5.06883030E-13 3.01380939E-13-4.51696776E-01
22  5-1.13564422E+00 1.04760457E+00-3.12270678E-12-1.61268336E-12-3.03731521E-01
22  6 3.45718928E-12 1.83161136E-12 4.15258302E-01-2.00091828E-01-2.00641646E-01
22  7 4.00733474E-01-1.05602550E-04 1.10090988E-13 7.47607165E-14
23  1 5.83398704E-03 4.67509845E-02 1.16601288E-01-5.12418482E-02 1.11369001E-14
23  2 4.43419668E-15 7.45792113E-02-8.90225919E-15 3.91269773E-14 4.55318016E-01
23  3-1.50466638E-13 4.96118966E-15-2.74896409E-01-1.29769377E-01-9.48053470E-02
23  4 2.24574724E-01 6.71547839E-03-8.89445675E-14-5.30390604E-14 7.37667640E-02
23  5 1.89787445E-01-1.52546980E-01 5.67834784E-13 3.04320279E-13-8.02870787E-01
23  6-6.30728306E-13-3.47082995E-13 9.34589784E-01 5.99944815E-02 6.01526455E-02
23  7-1.20147127E-01 3.03782885E-05-1.57934853E-14-1.21578043E-14
24  1-1.16976784E-16-6.04122570E-15-2.04917447E-14 1.64755295E-14-5.72161450E-04
24  2-3.53248351E-03 2.64603197E-16-3.72690542E-03-2.30095431E-02-1.26678837E-14
24  3 1.87187991E-03 1.15569747E-02-7.19524830E-15 3.36166525E-15-3.95337110E-14
24  4 3.61720457E-14-2.23490571E-14-1.50941223E-01-9.31896360E-01-1.15123709E-13
24  5-2.73025876E-13 2.71599525E-13-2.56723320E-02-1.58499079E-01 1.17692513E-14
24  6 3.24683152E-02 2.00456898E-01-1.26914374E-14 1.69833651E-13 1.48760114E-13
24  7-3.18593765E-13 2.24690652E-14-4.60584765E-02-2.84360534E-01
25  1-1.66099066E-15 1.00649886E-14 2.16449885E-14-1.25335010E-14 5.85980740E-03
25  2-9.49126621E-04 6.92097027E-15 5.97754823E-02-9.68196966E-03 3.58095677E-14
25  3 4.73873742E-03-7.67539566E-04-1.36271651E-14-9.75022048E-15 1.05706169E-13
25  4-9.59559481E-14-1.85866000E-13 9.26660979E-01-1.50093204E-01 1.49919441E-13
25  5 3.69411928E-13-3.68534178E-13 1.54855947E-01-2.50824444E-02-2.53989726E-14
25  6-1.97740904E-01 3.20286256E-02 1.99964670E-14-2.44314466E-13-2.23431202E-13
25  7 4.67745668E-13-1.59020192E-14 2.97447906E-01-4.81782563E-02
26  1-2.76397167E-14-2.16380158E-14 1.15786883E-11 1.19880778E-11-2.60581320E-16
26  2-4.21493421E-17 1.23149107E-14-2.69113285E-16 4.52506262E-16 4.14711212E-13
26  3 1.01054883E-17 2.03240159E-16 3.32303745E-13-1.93317640E-01 1.93317640E-01
26  4-5.60032030E-12-6.71003451E-01-9.64044655E-14 3.72916031E-14-2.07135198E-13
26  5-7.13048011E-13 3.53788819E-14 5.41117586E-15-1.93145076E-15 1.61269081E-12
26  6-3.87830726E-15 1.71196469E-15-3.32174867E-13 1.93317640E-01-1.93317640E-01
26  7 4.49190367E-13 6.71003451E-01-1.03115505E-13 4.25266099E-14
27  1 4.88816536E-07 3.77622792E-06 3.16829766E-05 1.78412551E-05-8.72667173E-17
27  2-2.66730374E-16 1.57468934E-05-9.88857769E-17 1.64928414E-16 2.00356566E-04
27  3-1.10337229E-16-4.66252570E-17 7.62902127E-05 1.46711681E-04 7.98682113E-03
27  4-8.13353281E-03 1.50583574E-03 1.57532351E-14-2.31056521E-15 9.47912525E-05
27  5 3.15117799E-04-1.22200972E-04 3.65062702E-16-1.02845382E-16-1.13952784E-03
27  6-7.78281413E-16 1.54779978E-16 7.53217089E-04 8.22422030E-01-8.20995867E-01
27  7-1.42616247E-03-3.15648322E-01-2.67638197E-14 1.90334546E-14
28  1 2.78959756E-14 2.08663037E-14-1.15817160E-11-1.19871664E-11 1.79482317E-16
28  2 2.56949054E-16-1.22726215E-14 1.70154279E-15-3.64548535E-16-3.89860923E-13
28  3-5.43179229E-17-1.81984898E-16-2.98036581E-13 1.93288813E-01-1.93288813E-01
28  4 3.49806084E-12 6.70903389E-01 2.42352717E-14-5.53179826E-15 2.31512369E-13
28  5 8.21451839E-13-4.07212375E-14-9.50029651E-15 7.92520366E-16-1.92241031E-12
28  6 1.03154256E-14-1.07891828E-15 5.18371278E-13 1.93288813E-01-1.93288813E-01
28  7 1.64313117E-12 6.70903389E-01 4.38570154E-13-3.58174209E-14
29  1-9.12144740E-17 6.89779216E-16 1.86952944E-15-1.52637839E-15-1.02688400E-04
29  2-6.33986965E-04-5.44123162E-17-8.05180911E-04-4.97110993E-03 9.39758848E-16
29  3 1.83948578E-04 1.13566541E-03 3.63723537E-16 1.71461626E-15-2.33009488E-14
29  4 2.15863325E-14 6.64134239E-15 4.63194113E-02 2.85971531E-01 1.01843832E-14
29  5 2.23444954E-14-2.30304273E-14 9.76354240E-04 6.02796769E-03 2.65228648E-15
29  6-2.21510742E-03-1.36759160E-02-1.29809571E-15 2.53037983E-14-1.78555063E-14
29  7-7.44829203E-15 3.04294059E-14-1.52935136E-01-9.44206646E-01
30  1 4.47524672E-17-1.07705728E-15-2.23491995E-15 1.29498557E-15 4.56193715E-04
30  2-7.38905354E-05-7.14560937E-16 4.45305227E-03-7.21269454E-04-2.82383527E-15
30  3 6.00916639E-05-9.73358070E-06 1.91536032E-15-1.08977115E-13 1.57388280E-13
30  4-4.84111649E-14-3.08896981E-13-2.99639130E-01 4.85331781E-02-1.25553529E-14
30  5-3.14573696E-14 3.27761565E-14-6.52805444E-03 1.05737217E-03-6.03458931E-15
30  6 1.45978580E-02-2.36445659E-03 4.01553907E-15-5.75795661E-14 1.97897801E-14
30  7 3.77897860E-14-2.36662489E-13 9.39939290E-01-1.52243944E-01
31  1-1.26323554E-04-1.02545488E-03-4.66837825E-03-1.03670086E-03-9.14522063E-16
31  2-3.97388019E-16-1.55169447E-03-1.11354099E-15-2.05164806E-15-2.06214508E-02
31  3 8.85657619E-15-4.90905946E-16-8.78955636E-03-2.28345626E-02-8.30436827E-01
31  4 8.53271390E-01-1.55114716E-01 5.95079730E-14 2.36034990E-14-9.75932635E-03
31  5-3.50078678E-02 1.00626164E-02-4.38402097E-14-2.01337559E-14 1.20540851E-01
31  6 4.85405560E-14 2.27503308E-14-7.88265713E-02-2.42364071E-02-3.99455240E-02
31  7 6.41819311E-02-3.01722183E-03 8.72079575E-14 2.07359432E-14
32  1 3.12143626E-15-1.91343382E-14-3.98655018E-14 2.43991413E-14-1.45468203E-02
32  2 2.35618178E-03-1.12725121E-14-5.64026621E-01 9.13566061E-02-4.12327657E-14
32  3-4.95235190E-01 8.02142882E-02 4.06807850E-14 3.55275548E-14-3.05638169E-14
32  4-4.96373789E-15-3.61870996E-14 8.94150302E-02-1.44827771E-02-2.79980982E-13
32  5-6.88825480E-13 6.90056786E-13-2.21577009E-01 3.58894923E-02 2.65108632E-14
32  6 2.87202871E-01-4.65190806E-02-2.35504736E-14 4.18793800E-13 4.22427582E-13
32  7-8.41221382E-13-1.76961417E-15 2.86576239E-02-4.64174603E-03
 $END
