 $CONTRL SCFTYP=GVB RUNTYP=ENERGY ICHARG=0 MULT=2 NOSYM=1 ICUT=11
  MAXIT=500 ISPHER=1 $END
 $SYSTEM MWORDS=312 $END
 $SCF NCO=9 NPAIR=2 NSETO=1 NO(1)=1 DIRSCF=.T. $END
 $GUESS GUESS=MOREAD NORB=32 $END
 $DATA
GAMESS inp file produced by MOKIT,nif=32,nbf=32
C1   1
Si   14.         0.00000000         0.00000000         0.00000000
   S 11
   1   7.88600000E+04   2.70437361E-04   0.00000000E+00
   2   1.18200000E+04   2.09714953E-03   0.00000000E+00
   3   2.69200000E+03   1.08504941E-02   0.00000000E+00
   4   7.63400000E+02   4.36749737E-02   0.00000000E+00
   5   2.49600000E+02   1.37651657E-01   0.00000000E+00
   6   9.02800000E+01   3.16640910E-01   0.00000000E+00
   7   3.52900000E+01   4.18576915E-01   0.00000000E+00
   8   1.45100000E+01   2.10209948E-01   0.00000000E+00
   9   4.05300000E+00   1.44950585E-02   0.00000000E+00
  10   1.48200000E+00  -2.03588013E-03   0.00000000E+00
  11   2.51700000E-01   6.24183908E-04   0.00000000E+00
   S 11
   1   7.88600000E+04  -7.21209338E-05   0.00000000E+00
   2   1.18200000E+04  -5.53591991E-04   0.00000000E+00
   3   2.69200000E+03  -2.92996280E-03   0.00000000E+00
   4   7.63400000E+02  -1.17363058E-02   0.00000000E+00
   5   2.49600000E+02  -4.01797968E-02   0.00000000E+00
   6   9.02800000E+01  -1.00332066E-01   0.00000000E+00
   7   3.52900000E+01  -1.95987042E-01   0.00000000E+00
   8   1.45100000E+01  -1.02100186E-01   0.00000000E+00
   9   4.05300000E+00   5.25738870E-01   0.00000000E+00
  10   1.48200000E+00   5.91618032E-01   0.00000000E+00
  11   2.51700000E-01   3.31736350E-02   0.00000000E+00
   S 11
   1   7.88600000E+04   3.38920342E-05   0.00000000E+00
   2   1.18200000E+04   2.60443163E-04   0.00000000E+00
   3   2.69200000E+03   1.37726900E-03   0.00000000E+00
   4   7.63400000E+02   5.53476510E-03   0.00000000E+00
   5   2.49600000E+02   1.89833843E-02   0.00000000E+00
   6   9.02800000E+01   4.80756033E-02   0.00000000E+00
   7   3.52900000E+01   9.59430205E-02   0.00000000E+00
   8   1.45100000E+01   5.32749453E-02   0.00000000E+00
   9   4.05300000E+00  -3.25925649E-01   0.00000000E+00
  10   1.48200000E+00  -6.35130495E-01   0.00000000E+00
  11   2.51700000E-01   1.14075717E+00   0.00000000E+00
   S  1
   1   9.24300000E-02   1.00000000E+00   0.00000000E+00
   P  7
   1   3.15900000E+02   3.92562090E-03   0.00000000E+00
   2   7.44200000E+01   2.98739534E-02   0.00000000E+00
   3   2.34800000E+01   1.27181575E-01   0.00000000E+00
   4   8.48800000E+00   3.20866241E-01   0.00000000E+00
   5   3.21700000E+00   4.55320076E-01   0.00000000E+00
   6   1.22900000E+00   2.68498769E-01   0.00000000E+00
   7   2.96400000E-01   1.88290956E-02   0.00000000E+00
   P  7
   1   3.15900000E+02  -1.68892302E-03   0.00000000E+00
   2   7.44200000E+01  -1.24033027E-02   0.00000000E+00
   3   2.34800000E+01  -5.67214851E-02   0.00000000E+00
   4   8.48800000E+00  -1.36672303E-01   0.00000000E+00
   5   3.21700000E+00  -2.35132796E-01   0.00000000E+00
   6   1.22900000E+00  -3.92726257E-02   0.00000000E+00
   7   2.96400000E-01   1.00408176E+00   0.00000000E+00
   P  1
   1   8.76800000E-02   1.00000000E+00   0.00000000E+00
   D  1
   1   2.75000000E-01   1.00000000E+00   0.00000000E+00

F     9.         0.00000000         0.00000000         2.20000000
   S  8
   1   1.47100000E+04   7.20673709E-04   0.00000000E+00
   2   2.20700000E+03   5.55048697E-03   0.00000000E+00
   3   5.02800000E+02   2.82542077E-02   0.00000000E+00
   4   1.42600000E+02   1.06395828E-01   0.00000000E+00
   5   4.64700000E+01   2.86684201E-01   0.00000000E+00
   6   1.67000000E+01   4.48437966E-01   0.00000000E+00
   7   6.35600000E+00   2.64641181E-01   0.00000000E+00
   8   1.31600000E+00   1.53260610E-02   0.00000000E+00
   S  8
   1   1.47100000E+04  -3.21193890E-04   0.00000000E+00
   2   2.20700000E+03  -2.54619157E-03   0.00000000E+00
   3   5.02800000E+02  -1.26433595E-02   0.00000000E+00
   4   1.42600000E+02  -5.19574917E-02   0.00000000E+00
   5   4.64700000E+01  -1.43447138E-01   0.00000000E+00
   6   1.67000000E+01  -3.32437623E-01   0.00000000E+00
   7   6.35600000E+00  -2.18659068E-01   0.00000000E+00
   8   1.31600000E+00   1.09559041E+00   0.00000000E+00
   S  1
   1   3.89700000E-01   1.00000000E+00   0.00000000E+00
   P  3
   1   2.26700000E+01   6.48340215E-02   0.00000000E+00
   2   4.97700000E+00   3.40535360E-01   0.00000000E+00
   3   1.34700000E+00   7.34646407E-01   0.00000000E+00
   P  1
   1   3.47100000E-01   1.00000000E+00   0.00000000E+00
   D  1
   1   1.64000000E+00   1.00000000E+00   0.00000000E+00

 $END
 $VEC
 1  1 6.02873657E-03-2.56346104E-02 3.93642026E-04 3.80203173E-04 1.41216108E-08
 1  2 4.15031144E-09-7.39758407E-04-8.61510645E-12-4.43057667E-12 2.84822759E-04
 1  3-7.89048395E-11-4.12307625E-11-2.57610074E-05-1.06173114E-05-1.20560109E-05
 1  4 2.26733223E-05 8.76562288E-07-1.67928778E-11-1.38397774E-11-9.99982283E-01
 1  5 1.62493233E-02 2.26168021E-02-2.66278285E-10-2.28099451E-10 1.36662818E-03
 1  6-2.05644646E-10-1.73677154E-10-3.98886014E-05-7.04301040E-05-9.25835830E-05
 1  7 1.63013687E-04 1.34975396E-05 3.22764501E-12 2.47058583E-12
 2  1-9.99079113E-01-1.57551609E-02-8.52953663E-05 3.34987699E-04-1.23539495E-09
 2  2-6.07430601E-10 3.95098310E-02 8.49871245E-13 3.38586991E-13-3.72403327E-04
 2  3 7.78645120E-12 3.06231802E-12-3.47874734E-04 6.26238139E-05 7.23719951E-05
 2  4-1.34995809E-04-5.93931362E-06 1.90552255E-12 5.59175883E-13-5.72861124E-03
 2  5-1.78874592E-03-2.15682261E-03 3.06284264E-11 8.70594841E-12 8.72195677E-04
 2  6 2.35335189E-11 6.76943901E-12 6.95392754E-04 9.26458179E-06 8.22490941E-06
 2  7-1.74894912E-05 6.33445382E-07-3.56604518E-13-1.12087111E-13
 3  1-5.91418019E-12-5.86808779E-07 1.68222788E-09 7.26950567E-09 9.18740524E-01
 3  2 3.94583736E-01-1.95026173E-07-6.05701368E-04-2.60680135E-04-2.44531483E-09
 3  3-5.57622714E-03-2.40009892E-03-8.79558763E-10 4.04679239E-10 4.75856154E-10
 3  4-8.80535393E-10-4.33666311E-11-1.31088935E-03-5.65571100E-04 2.97266952E-08
 3  5-3.57191333E-10-4.61553653E-10-2.10020287E-02-9.06319851E-03 6.30078959E-09
 3  6-1.61583984E-02-6.97239300E-03 4.13864755E-09-7.54059543E-12-1.27480577E-12
 3  7 8.81540120E-12-3.81773150E-12 2.47301372E-04 1.06650404E-04
 4  1-3.63276575E-03 9.59869162E-01-2.73315554E-03-1.18955642E-02 5.67728707E-07
 4  2 2.42115171E-07 2.87231142E-01-3.73548263E-10-1.61344613E-10 4.15441301E-03
 4  3-3.43944890E-09-1.48679805E-09 1.60296400E-03-6.74489404E-04-7.91142656E-04
 4  4 1.46563206E-03 7.10737969E-05-8.06920858E-10-3.53974048E-10-2.47173909E-02
 4  5 7.58540341E-05 9.42626684E-05-1.29255827E-08-5.67803212E-09-1.07772855E-02
 4  6-9.94528883E-09-4.36656107E-09-7.15493736E-03 7.70650971E-06-2.14271437E-06
 4  7-5.56379534E-06 6.00087647E-06 1.52283398E-10 6.66271967E-11
 5  1-4.23565983E-02 2.86674214E-01 9.38584228E-05-3.38648831E-03-1.79793797E-08
 5  2-5.24734845E-09-9.56938643E-01 1.08590012E-11 5.56116208E-12 6.84910305E-03
 5  3 1.00131616E-10 5.24215456E-11 6.15483436E-03-7.34326880E-04-7.83457540E-04
 5  4 1.51778442E-03 2.99340351E-05 2.12119828E-11 1.76271535E-11-7.06071652E-03
 5  5 2.68032843E-03 3.96615723E-03 3.36432243E-10 2.90643584E-10-1.77418443E-02
 5  6 2.59842924E-10 2.21277505E-10-1.49407742E-02-2.14783068E-04-2.18444026E-04
 5  7 4.33227094E-04 2.23052660E-06-4.08087584E-12-3.14586733E-12
 6  1-3.02918997E-11-8.17031173E-10 3.64816610E-12 8.08076889E-12 3.92828377E-01
 6  2-9.14664235E-01-2.64212344E-09 1.51181041E-04-3.50676978E-04 7.32241749E-12
 6  3 1.49901601E-03-3.47802899E-03 9.81087751E-12 1.38759024E-13 2.29953620E-13
 6  4-3.68712644E-13-5.68391163E-14 1.35672090E-03-3.15292595E-03 1.78793703E-09
 6  5-7.67011914E-11-9.55352823E-11 2.32859741E-02-5.41171242E-02-2.83838378E-11
 6  6 1.74749833E-02-4.06117048E-02-2.43478741E-11-3.13521322E-13-2.96800129E-13
 6  7 6.10321451E-13-8.99552787E-15-2.21970729E-04 5.15800648E-04
 7  1-4.34619360E-03-9.16070981E-03 3.53116948E-03 2.08085659E-02 2.70975245E-10
 7  2-4.08241801E-12 4.87115953E-03-1.61275369E-13-1.11389091E-13 1.63414401E-02
 7  3-1.26821938E-12-9.97820795E-13 1.90168085E-02-7.34814044E-03-7.57617926E-03
 7  4 1.49243197E-02 1.38938136E-04-2.03703314E-13-4.99365088E-13 2.44538211E-02
 7  5 4.85702309E-01 5.79900662E-01-3.06072087E-12-8.37899393E-12 6.76535482E-03
 7  6-2.40297406E-12-6.33370965E-12 2.22003413E-03-7.23953929E-04-4.52037221E-04
 7  7 1.17599115E-03-1.65671789E-04 4.15707370E-14 8.51716429E-14
 8  1 1.13138444E-13-2.53111890E-12-1.96572321E-13-1.20351627E-13 2.88959748E-02
 8  2 1.23982630E-02-3.00708087E-12 3.48927325E-02 1.50157213E-02 5.25468520E-14
 8  3 7.08016971E-02 3.04675816E-02 5.96933246E-14-9.27036125E-15-1.04997512E-14
 8  4 1.97701124E-14 4.67547558E-16 3.87931481E-02 1.66949093E-02-6.17191852E-13
 8  5 3.78138092E-13 4.62093289E-13 5.87424710E-01 2.52826243E-01-1.55725948E-14
 8  6 4.51345483E-01 1.94256384E-01-2.59287459E-14-8.55288720E-16-8.44510150E-16
 8  7 1.69979887E-15 7.05511576E-17-6.41081108E-03-2.75906300E-03
 9  1-3.48144532E-15-1.49226812E-12-1.06834697E-13-7.90679513E-14 3.71994097E-02
 9  2-8.65217638E-02-2.06321856E-12-1.25179113E-02 2.90801046E-02 4.28043462E-14
 9  3-2.38867561E-02 5.54875302E-02 3.78564823E-14-5.05873097E-15-4.81639980E-15
 9  4 9.87513077E-15 5.38143447E-16-1.47891909E-02 3.43583742E-02 3.34676760E-13
 9  5-5.17688382E-14-5.87813825E-14-2.54302978E-01 5.90861285E-01-7.99224716E-14
 9  6-1.93260285E-01 4.49027530E-01-6.85615613E-14-8.02136336E-16-5.52012964E-16
 9  7 1.35414930E-15 1.41063213E-16 2.60276394E-03-6.04708988E-03
10  1-9.68624071E-19 8.76736940E-18-4.55899464E-17-6.95715106E-17-5.68436930E-03
10  2 1.32176685E-02 3.03013333E-17-2.26413335E-01 5.26471142E-01 3.58020791E-16
10  3-2.11932779E-01 4.92800001E-01 2.85548706E-16-1.10922183E-16 1.26271171E-17
10  4 9.82950662E-17 2.08413077E-16 1.49740296E-02-3.48185962E-02 3.75474313E-17
10  5-2.63758650E-17-1.23462594E-16 3.44577019E-02-8.01233086E-02-4.72589797E-17
10  6 3.62937984E-02-8.43927216E-02 1.04832399E-16-9.59161998E-17 7.34619152E-17
10  7 2.24542846E-17 7.01332369E-17 6.31652579E-04-1.46876002E-03
11  1-1.32074812E-03 1.82909897E-02-4.01372384E-02 1.80602261E-02 3.27457353E-12
11  2-1.77192508E-12-2.35748192E-02-1.64381343E-15 1.53721376E-15-1.87768436E-01
11  3-1.04680535E-14-7.74986502E-15-1.16761809E-01 2.85554865E-02 2.88551293E-02
11  4-5.74106158E-02-1.82564551E-04-3.31867055E-16-6.18811650E-15 4.93387318E-03
11  5 3.66503577E-02 4.89934500E-02 1.65959316E-16-1.03470322E-13 5.81086526E-01
11  6-5.12054796E-16-7.87400044E-14 4.55592988E-01 4.96100763E-03 5.08126587E-03
11  7-1.00422735E-02-7.32702244E-05-1.40586401E-16 8.76659163E-16
12  1-1.49367334E-02-1.22347382E-01-3.34573893E-01 8.43578339E-02-4.41313094E-15
12  2 1.37704773E-14-4.78702808E-02-6.04264773E-14 4.88490172E-14-6.22114137E-01
12  3-3.67531339E-14-1.09025281E-13-3.11189712E-01 8.37283728E-02 4.50820421E-01
12  4-5.34548794E-01-2.23659656E-01 2.31461521E-14 8.89571778E-15-2.43149230E-02
12  5 3.55815243E-02 2.81045650E-01 3.34123280E-14-1.30239281E-13-3.06327666E-01
12  6-2.22053215E-14 1.57633992E-13-3.16764603E-01-3.69023815E-03 1.62072621E-02
12  7-1.25170239E-02-1.21230301E-02-1.10157596E-14-3.18380769E-15
13  1 3.75215735E-03 3.68584498E-02 5.94435212E-01 4.75753253E-01-9.81495288E-14
13  2 5.84678139E-14-3.88822534E-04 9.45783479E-15 1.12353993E-14-1.01600936E-01
13  3 2.04690187E-14 2.21208842E-14-1.00944581E-01 1.10303416E-02 1.48997404E-02
13  4-2.59300820E-02-2.35752421E-03 1.06916838E-14 1.30469760E-14 2.17814134E-04
13  5-2.63548844E-02-4.95606507E-02 1.55453405E-13 2.11456755E-13 1.99272930E-02
13  6 1.19944803E-13 1.61514021E-13 2.82337498E-02-8.12339333E-04-9.19979957E-04
13  7 1.73231929E-03 6.55826368E-05-1.82723645E-15-2.18307728E-15
14  1 4.48804231E-03 3.62011123E-02 1.08648796E-01-1.92864401E-02-1.16029636E-14
14  2 3.53650476E-14 1.03694545E-02 1.05498891E-13 2.51466239E-13 2.97453213E-01
14  3 2.51160673E-13-9.12107515E-14 2.54667443E-01-2.16102867E-01 6.56738577E-01
14  4-4.40635710E-01-5.31799627E-01 7.87177663E-14 1.15139718E-14 3.87889463E-03
14  5-4.37284621E-03-4.44251400E-02-8.64850933E-14 8.12653065E-14 9.61114909E-02
14  6 1.68617368E-15-1.04529569E-13 3.93983219E-02-3.30871453E-04-1.81474034E-03
14  7 2.14561179E-03 9.04082780E-04-4.00055636E-15 7.34372956E-15
15  1 6.09796443E-15 4.34771517E-14 1.14279445E-13-5.96254279E-14-7.48730632E-02
15  2 1.74092616E-01 7.30803745E-15-3.82446386E-01 8.88893937E-01 1.18881183E-13
15  3 3.70857795E-01-8.62732991E-01 5.97327025E-14-1.54636969E-15-2.35089638E-13
15  4 2.36636008E-13 2.59272899E-13 4.45632918E-02-1.03766903E-01-6.90028473E-15
15  5-3.34132008E-14-4.94998507E-14-2.08883403E-01 4.85803694E-01 8.18174590E-14
15  6 1.82853877E-01-4.25104864E-01 7.57093548E-14 7.63603565E-16-1.13168949E-14
15  7 1.05532913E-14 6.81337314E-15-1.77599994E-02 4.12978959E-02
16  1 1.01447535E-14 7.44132295E-14 1.49389133E-13-1.39031607E-13 9.04799047E-03
16  2 3.94955945E-03 1.04137641E-14 5.02205282E-01 2.16275781E-01 5.19003634E-14
16  3 4.95608600E-01 2.12851281E-01-6.57650741E-14 6.95243695E-14-2.74248668E-13
16  4 2.04724299E-13 2.93346879E-13 1.84692217E-01 7.93936429E-02 4.12714545E-14
16  5 7.03486744E-14-7.88883157E-14-1.19718822E-01-5.13231103E-02 3.11115383E-14
16  6-1.00247369E-01-4.32547963E-02 2.39150758E-14-2.36111018E-14 7.08328262E-14
16  7-4.72217244E-14-2.97468735E-14-1.50455284E-03-6.33188885E-04
17  1-1.13142111E-01-8.92664220E-01-1.47250960E+00 1.80115479E+00-1.19667160E-15
17  2 8.14933581E-15-5.80508583E-02 7.89963761E-15 5.71487637E-14-1.46106233E-01
17  3 4.74666878E-14-3.33862178E-14 6.99381933E-01-2.25247705E-01-2.03138765E-01
17  4 4.28386470E-01-1.34704026E-02 1.75813298E-14 2.60942394E-15 4.79486502E-01
17  5 1.07750837E+00-1.56546994E+00-6.83763588E-15 1.15738886E-14-1.69884892E-01
17  6-8.46908474E-15-1.35090788E-14 5.08697255E-01 1.27142444E-02 1.27365907E-02
17  7-2.54508351E-02-1.36150737E-05-1.12759746E-15 1.54581574E-15
18  1 7.53443015E-02 6.02915289E-01 1.12108076E+00-1.03862678E+00-6.11550501E-16
18  2 4.20015832E-14-1.00501168E-01-1.41081329E-14 2.63623768E-13-4.70285842E-01
18  3 1.28339108E-13-2.18540467E-13 6.41088171E-01-7.92483452E-02-7.31059548E-02
18  4 1.52354300E-01-3.74239930E-03 2.64561681E-14-3.01912929E-14 4.42955720E-01
18  5 1.08437573E+00-1.14946995E+00-5.69348401E-14 1.80860460E-14-4.02389220E-02
18  6 2.74352011E-14-1.16523863E-15 6.41980230E-02 2.25910137E-03 5.38362510E-03
18  7-7.64272647E-03-1.90369117E-03-6.89341326E-15 5.67203766E-15
19  1-6.41531399E-16-5.47126536E-15-7.55652679E-15 1.36468303E-14 2.07543381E-01
19  2 8.92558155E-02 3.16679214E-14 1.04767864E+00 4.50563207E-01 1.58967985E-13
19  3-1.08920343E+00-4.68421288E-01-1.62341985E-13-6.93352545E-15 3.28653742E-17
19  4 6.90066008E-15-1.12914533E-15-8.13262017E-02-3.49750404E-02 1.83167318E-14
19  5 5.32668067E-14-1.52472397E-14-2.35521370E-01-1.01287838E-01-3.91742589E-14
19  6 3.81461170E-01 1.64050486E-01 4.72439617E-14 3.59152085E-15 7.65120955E-15
19  7-1.12427304E-14-1.34486284E-15-1.65014296E-02-7.09656901E-03
20  1-8.49082602E-03-6.76419114E-02-1.08857952E-01 1.35099084E-01 5.87496611E-14
20  2-6.87627031E-14-2.05648669E-01 3.08902589E-13-3.53324617E-13-9.86564280E-01
20  3-3.71060882E-13 3.87467523E-13 1.11437613E+00-3.98380298E-02-4.41559782E-02
20  4 8.39940080E-02 2.63081426E-03-5.10858996E-14 1.08444468E-13-2.55698091E-01
20  5-6.92302390E-01 3.57894325E-01-1.12956044E-13 3.11003042E-13 3.60196346E-03
20  6 1.75319280E-13-3.93359455E-13 5.03473211E-02-1.74022132E-02-2.12828755E-02
20  7 3.86850887E-02 2.36438676E-03-1.24502187E-15 9.12890123E-15
21  1 1.51677981E-14 1.33890348E-13 3.55819000E-13-2.61590074E-14-5.17675409E-02
21  2 1.20373263E-01-9.05930305E-15-2.46294057E-01 5.72698304E-01 3.53916236E-14
21  3 2.93275524E-01-6.81944220E-01 5.51944830E-13-3.38130440E-13-2.77819656E-13
21  4 6.15950096E-13-5.33544928E-14 8.93942143E-02-2.07865577E-01-2.08490657E-13
21  5-6.00219968E-13 2.49800891E-13 3.10423324E-01-7.21816509E-01-1.09824971E-12
21  6-3.83379591E-01 8.91459563E-01 1.57276192E-12 3.82241975E-14 3.98757733E-14
21  7-7.80999708E-14-6.92814132E-16 1.23366931E-02-2.86860859E-02
22  1-1.68558440E-02-1.44421056E-01-3.29926254E-01 1.14719531E-01-5.15822676E-14
22  2 1.31194695E-13-5.85386559E-02-2.52182819E-13 5.68520797E-13-2.86127103E-01
22  3 1.82618119E-13-7.68856072E-13 1.15730993E-02 2.27082507E-01 1.24370796E-01
22  4-3.51453303E-01 6.25795787E-02 7.54224304E-14-2.73187017E-13 3.20238559E-02
22  5 1.08684104E-01-1.43258241E-02 4.74312780E-13-9.77535112E-13 9.29671004E-01
22  6-5.28301331E-13 1.20005738E-12-1.17597237E+00-3.18305381E-02-3.79171806E-02
22  7 6.97477187E-02 3.70843327E-03 2.23224362E-14-4.52727314E-14
23  1-4.15923636E-15-3.40904988E-14-6.65805769E-14 5.21649602E-14-5.40654898E-02
23  2-2.32512294E-02-1.43207517E-14-3.02505427E-01-1.30094549E-01-7.05551646E-14
23  3 2.16877105E-01 9.32693849E-02 4.06304769E-14 6.89114640E-15 1.97424757E-14
23  4-2.66336221E-14 5.59284890E-15-2.29669593E-01-9.87713829E-02-2.30053200E-14
23  5-5.08999787E-14 4.46489998E-14-8.24065499E-01-3.54396032E-01 3.30829261E-14
23  6 9.10396978E-01 3.91523630E-01-5.62366021E-14-5.56151155E-15 9.86724685E-15
23  7-4.30573530E-15-4.67271020E-15-1.61455246E-02-6.94349662E-03
24  1-7.99691176E-16-1.11894783E-14-2.67965773E-14 1.38815144E-14 1.50223333E-02
24  2-3.49309071E-02-2.65846302E-15 8.41278742E-02-1.95619206E-01-2.04323512E-14
24  3-6.55578139E-02 1.52439769E-01-1.02132012E-15 3.72260348E-14 1.57740096E-13
24  4-1.94966131E-13 1.91345244E-13 3.44486497E-01-8.01022467E-01 6.56598737E-15
24  5 2.73351682E-14 1.54256261E-14-3.07784279E-02 7.15679033E-02-8.03114563E-14
24  6-1.82689765E-02 4.24801387E-02 1.51480238E-14-9.42730813E-14-1.29086199E-13
24  7 2.23359280E-13-5.93219442E-15 1.95823016E-01-4.55340541E-01
25  1-1.79729548E-03-1.40774446E-02-2.89107670E-02 2.48847262E-02-2.74651669E-15
25  2 3.24129080E-15-1.96663035E-03-5.32238524E-15 1.45211037E-14 2.66310009E-02
25  3-1.26397085E-15-8.87957900E-15 6.28680565E-02 4.08589578E-01 4.06599201E-02
25  4-4.49249498E-01 2.24169995E-01-1.66081972E-13 1.75099361E-13 8.26347344E-03
25  5 3.91906189E-02 2.34721013E-02 3.99140192E-14-6.74224640E-14-1.36629207E-01
25  6-1.50921943E-14 4.59330752E-14 6.29120781E-02-4.20386165E-01-4.29643551E-01
25  7 8.50029716E-01 5.64028361E-03-1.12023181E-13 1.70920112E-13
26  1-9.82073088E-16-9.94890489E-15-1.85961958E-14 1.53533974E-14 8.36962621E-05
26  2 3.60379653E-05-3.50898441E-15 4.37412672E-02 1.88115212E-02-1.82153718E-14
26  3 5.15691545E-02 2.21775322E-02 4.30899445E-15-1.09322583E-13 1.50310793E-13
26  4-4.09882100E-14 1.61947844E-13-4.81478692E-01-2.07063983E-01-4.36200943E-15
26  5-4.32728039E-15 1.28186656E-14 9.30593524E-02 4.00210741E-02-1.97701569E-14
26  6-4.51443751E-02-1.94148240E-02-2.89787532E-15-1.08868204E-13 2.17183219E-13
26  7-1.08315015E-13-1.64727657E-13-7.86530341E-01-3.38253940E-01
27  1 9.03503754E-12 7.20614043E-11 6.48783055E-11-1.97085584E-10 6.06240872E-15
27  2-1.41527868E-14-2.54164402E-12 1.34737618E-14-7.17844511E-14-4.59802626E-10
27  3-4.42329493E-14 5.92604030E-14-5.17006404E-10-4.45601409E-01 4.45601408E-01
27  4 6.02938381E-10 4.87576342E-01 3.66979698E-14-1.39965137E-14 6.99908330E-11
27  5 2.25771327E-10-4.15783315E-11 1.99795405E-14-4.41568020E-14-3.35305113E-10
27  6-1.85717236E-14 5.01335027E-14-1.04450335E-10 4.45601409E-01-4.45601404E-01
27  7-4.90081781E-09-4.87576344E-01-9.99633713E-15 3.90138344E-13
28  1-9.43871054E-05-7.38469449E-04 4.56377852E-04 3.15256444E-03-6.94786096E-16
28  2 1.00797136E-15 2.94136537E-05-3.18801177E-14-8.36479352E-15 8.64636989E-03
28  3-3.03013576E-14-1.85294267E-14 1.02402228E-02 1.42433249E-02-8.72166882E-03
28  4-5.52165607E-03 1.39919743E-02 1.48055421E-14 1.02252504E-14-1.33069098E-03
28  5-4.58589880E-03-2.57038074E-04 9.30347689E-15 5.95665569E-15 7.20405381E-03
28  6 3.19307711E-15-1.08515650E-15 3.91614082E-04-5.95464641E-01 5.95567308E-01
28  7-1.02666913E-04-7.25664837E-01 2.66391291E-13 8.83635729E-14
29  1 6.02465984E-12 4.84174524E-11 1.90199250E-11-1.53642465E-10 1.11380529E-14
29  2-2.58141243E-14-7.27827989E-12 3.39312395E-14-1.42119967E-13-4.20231248E-10
29  3-7.93437454E-14 1.17073139E-13-4.04013515E-10-4.43409135E-01 4.43409135E-01
29  4-1.34378126E-10 4.85177562E-01 8.69662759E-14-2.38023052E-13 8.18463218E-11
29  5 2.85588339E-10-9.83070115E-13 3.25484244E-14-3.70939817E-14-5.48215506E-10
29  6-3.54832511E-14 8.01592587E-14-2.06967846E-11-4.43409132E-01 4.43409136E-01
29  7-3.95117238E-09 4.85177563E-01-9.76284996E-14 7.58113184E-13
30  1-1.74091161E-15-6.03885953E-15-1.35056388E-14 7.16627130E-15 1.14851614E-02
30  2-2.67060442E-02-1.86988629E-15 5.96909966E-02-1.38797056E-01-1.74677432E-14
30  3-5.58322648E-02 1.29825204E-01-9.11215619E-15 5.12205075E-13-4.81995866E-13
30  4-3.02092088E-14-5.48739328E-13 1.80709372E-01-4.20197183E-01 1.21436701E-15
30  5 5.40427657E-15 6.29824785E-15 6.94965364E-04-1.61607093E-03-1.52192489E-14
30  6-2.98681808E-02 6.94513832E-02-9.18325796E-15 2.27853218E-13-1.36185100E-13
30  7-9.16681175E-14-2.32079406E-13-3.42801042E-01 7.97103557E-01
31  1 2.99690039E-15 2.35612983E-14 3.35985129E-14-5.18114608E-14-2.05255411E-03
31  2-8.82769588E-04 7.75258966E-15-9.58144800E-02-4.12060832E-02-2.82040498E-14
31  3-9.30328026E-02-4.00092838E-02-1.21044659E-13-6.12928473E-13 4.76373178E-14
31  4 5.65291155E-13-2.28644337E-13 7.40121368E-01 3.18295421E-01-2.11860365E-15
31  5-2.91995600E-14-3.51544286E-14-1.32507562E-01-5.69861255E-02 1.50750238E-13
31  6 4.51996850E-02 1.94386298E-02-3.61433322E-14-3.78102623E-13-1.51705751E-13
31  7 5.29808374E-13-6.72227857E-14-4.75468314E-01-2.04479129E-01
32  1-1.90099051E-03-1.46852651E-02-1.04176317E-02 4.53913848E-02-2.90341566E-15
32  2-3.03167391E-15-4.55967584E-03-1.31731706E-13-7.49273001E-14 7.88489216E-02
32  3-1.46609499E-13-4.66934784E-14 1.59302380E-01 6.07800419E-01-5.19672864E-03
32  4-6.02603690E-01 3.73483240E-01 6.78461097E-13 3.69795171E-13 4.22073210E-03
32  5 2.77924456E-02 2.23661817E-02-9.23350909E-14-9.56758456E-14-1.26771199E-01
32  6 3.28086918E-14 6.00273356E-14 4.47078520E-02 2.72173717E-01 2.55411015E-01
32  7-5.27584732E-01 1.02130786E-02-3.53872850E-13-1.89463201E-13
 $END
