 $CONTRL SCFTYP=GVB RUNTYP=ENERGY ICHARG=0 MULT=2 NOSYM=1 ICUT=11
  MAXIT=500 ISPHER=1 $END
 $SYSTEM MWORDS=312 $END
 $SCF NCO=9 NPAIR=2 NSETO=1 NO(1)=1 DIRSCF=.T. $END
 $GUESS GUESS=MOREAD NORB=32 $END
 $DATA
GAMESS inp file produced by MOKIT,nif=32,nbf=32
C1   1
Si   14.         0.00000000         0.00000000         0.00000000
   S 11
   1   7.88600000E+04   2.70437361E-04   0.00000000E+00
   2   1.18200000E+04   2.09714953E-03   0.00000000E+00
   3   2.69200000E+03   1.08504941E-02   0.00000000E+00
   4   7.63400000E+02   4.36749737E-02   0.00000000E+00
   5   2.49600000E+02   1.37651657E-01   0.00000000E+00
   6   9.02800000E+01   3.16640910E-01   0.00000000E+00
   7   3.52900000E+01   4.18576915E-01   0.00000000E+00
   8   1.45100000E+01   2.10209948E-01   0.00000000E+00
   9   4.05300000E+00   1.44950585E-02   0.00000000E+00
  10   1.48200000E+00  -2.03588013E-03   0.00000000E+00
  11   2.51700000E-01   6.24183908E-04   0.00000000E+00
   S 11
   1   7.88600000E+04  -7.21209338E-05   0.00000000E+00
   2   1.18200000E+04  -5.53591991E-04   0.00000000E+00
   3   2.69200000E+03  -2.92996280E-03   0.00000000E+00
   4   7.63400000E+02  -1.17363058E-02   0.00000000E+00
   5   2.49600000E+02  -4.01797968E-02   0.00000000E+00
   6   9.02800000E+01  -1.00332066E-01   0.00000000E+00
   7   3.52900000E+01  -1.95987042E-01   0.00000000E+00
   8   1.45100000E+01  -1.02100186E-01   0.00000000E+00
   9   4.05300000E+00   5.25738870E-01   0.00000000E+00
  10   1.48200000E+00   5.91618032E-01   0.00000000E+00
  11   2.51700000E-01   3.31736350E-02   0.00000000E+00
   S 11
   1   7.88600000E+04   3.38920342E-05   0.00000000E+00
   2   1.18200000E+04   2.60443163E-04   0.00000000E+00
   3   2.69200000E+03   1.37726900E-03   0.00000000E+00
   4   7.63400000E+02   5.53476510E-03   0.00000000E+00
   5   2.49600000E+02   1.89833843E-02   0.00000000E+00
   6   9.02800000E+01   4.80756033E-02   0.00000000E+00
   7   3.52900000E+01   9.59430205E-02   0.00000000E+00
   8   1.45100000E+01   5.32749453E-02   0.00000000E+00
   9   4.05300000E+00  -3.25925649E-01   0.00000000E+00
  10   1.48200000E+00  -6.35130495E-01   0.00000000E+00
  11   2.51700000E-01   1.14075717E+00   0.00000000E+00
   S  1
   1   9.24300000E-02   1.00000000E+00   0.00000000E+00
   P  7
   1   3.15900000E+02   3.92562090E-03   0.00000000E+00
   2   7.44200000E+01   2.98739534E-02   0.00000000E+00
   3   2.34800000E+01   1.27181575E-01   0.00000000E+00
   4   8.48800000E+00   3.20866241E-01   0.00000000E+00
   5   3.21700000E+00   4.55320076E-01   0.00000000E+00
   6   1.22900000E+00   2.68498769E-01   0.00000000E+00
   7   2.96400000E-01   1.88290956E-02   0.00000000E+00
   P  7
   1   3.15900000E+02  -1.68892302E-03   0.00000000E+00
   2   7.44200000E+01  -1.24033027E-02   0.00000000E+00
   3   2.34800000E+01  -5.67214851E-02   0.00000000E+00
   4   8.48800000E+00  -1.36672303E-01   0.00000000E+00
   5   3.21700000E+00  -2.35132796E-01   0.00000000E+00
   6   1.22900000E+00  -3.92726257E-02   0.00000000E+00
   7   2.96400000E-01   1.00408176E+00   0.00000000E+00
   P  1
   1   8.76800000E-02   1.00000000E+00   0.00000000E+00
   D  1
   1   2.75000000E-01   1.00000000E+00   0.00000000E+00

F     9.         0.00000000         0.00000000         3.80000000
   S  8
   1   1.47100000E+04   7.20673709E-04   0.00000000E+00
   2   2.20700000E+03   5.55048697E-03   0.00000000E+00
   3   5.02800000E+02   2.82542077E-02   0.00000000E+00
   4   1.42600000E+02   1.06395828E-01   0.00000000E+00
   5   4.64700000E+01   2.86684201E-01   0.00000000E+00
   6   1.67000000E+01   4.48437966E-01   0.00000000E+00
   7   6.35600000E+00   2.64641181E-01   0.00000000E+00
   8   1.31600000E+00   1.53260610E-02   0.00000000E+00
   S  8
   1   1.47100000E+04  -3.21193890E-04   0.00000000E+00
   2   2.20700000E+03  -2.54619157E-03   0.00000000E+00
   3   5.02800000E+02  -1.26433595E-02   0.00000000E+00
   4   1.42600000E+02  -5.19574917E-02   0.00000000E+00
   5   4.64700000E+01  -1.43447138E-01   0.00000000E+00
   6   1.67000000E+01  -3.32437623E-01   0.00000000E+00
   7   6.35600000E+00  -2.18659068E-01   0.00000000E+00
   8   1.31600000E+00   1.09559041E+00   0.00000000E+00
   S  1
   1   3.89700000E-01   1.00000000E+00   0.00000000E+00
   P  3
   1   2.26700000E+01   6.48340215E-02   0.00000000E+00
   2   4.97700000E+00   3.40535360E-01   0.00000000E+00
   3   1.34700000E+00   7.34646407E-01   0.00000000E+00
   P  1
   1   3.47100000E-01   1.00000000E+00   0.00000000E+00
   D  1
   1   1.64000000E+00   1.00000000E+00   0.00000000E+00

 $END
 $VEC
 1  1-9.68022049E-01-2.51590913E-01 9.54548680E-04 3.70374341E-03-4.12494100E-10
 1  2 1.77003855E-09-2.82434765E-03-8.74259725E-13 3.31245485E-12-7.04928204E-06
 1  3 1.48863734E-12-6.18536100E-12 2.63182230E-05 1.53638874E-05-3.68398489E-05
 1  4 2.14759615E-05 1.60143404E-05 1.82416555E-15-8.45843769E-15-7.98830057E-04
 1  5 4.28008465E-05-5.85293131E-05 1.39754869E-13-9.99415305E-13-3.25848787E-05
 1  6 7.05930325E-14-5.82962876E-13 6.79791130E-05 1.07784832E-06 1.07197419E-06
 1  7-2.14982251E-06 1.80198599E-09 1.61386511E-15-4.71128319E-15
 2  1 2.50871733E-01-9.70651182E-01 3.80373624E-03 1.34881533E-02 8.91174106E-11
 2  2 9.88908561E-12-1.02659323E-02-1.41453390E-13-6.11085383E-14-2.39729738E-05
 2  3-1.71033343E-13 9.35768817E-15 9.23416001E-05 5.03985790E-05-1.22088258E-04
 2  4 7.16896792E-05 5.29131269E-05-1.30613814E-15 1.43805084E-15 1.12593510E-02
 2  5-1.56871073E-04-5.60424075E-04-6.19378237E-13 9.75982836E-13-1.15284916E-04
 2  6-4.25871930E-13 6.76774840E-13 2.25058307E-04 4.49981795E-06 4.45933492E-06
 2  7-8.95915287E-06 1.24188224E-08-3.81899546E-16 1.76951544E-16
 3  1-3.59929077E-03 1.06035831E-02 3.36156904E-05-1.89318934E-04 2.34156337E-09
 3  2-9.29139099E-09 9.40758305E-03 4.32814568E-12-1.75553100E-11-5.54841412E-06
 3  3-8.17902697E-12 3.25965496E-11-7.34377573E-05 1.51185515E-05 1.33291073E-05
 3  4-2.84476588E-05 5.48940950E-07-1.51675436E-14 5.55661970E-14 9.99519716E-01
 3  5-2.01186576E-02-2.42247790E-02-3.97753210E-12 1.27009495E-11-4.35425319E-05
 3  6-2.61561462E-12 8.23507719E-12-3.08251417E-05 1.05745860E-04 1.04745084E-04
 3  7-2.10490944E-04 3.07004525E-07-7.97962205E-15 2.59435246E-14
 4  1 1.72674461E-09 5.45310687E-10-1.34793199E-12-8.35601212E-12-2.41482100E-01
 4  2 9.70938052E-01 2.48970756E-10-4.56841029E-04 1.83034330E-03-2.94757644E-13
 4  3 8.46494036E-04-3.40049387E-03-1.03770044E-12 1.17808324E-13 1.92313561E-13
 4  4-3.10121885E-13-2.30112640E-14 1.22791010E-06-4.93931389E-06 9.57246034E-09
 4  5-1.92708280E-10-2.31801428E-10 1.85516360E-04-7.47037074E-04-3.53291412E-13
 4  6 1.13606489E-04-4.57611685E-04-4.44388054E-13 1.01059694E-12 1.00125391E-12
 4  7-2.01185085E-12 3.27803075E-15 6.55336661E-07-2.63351768E-06
 5  1-1.21689618E-04-1.07426668E-02 5.94046032E-05 8.88874088E-05-9.63959526E-09
 5  2-2.55611272E-09 9.99895045E-01 1.66359510E-11 3.85389285E-12-1.64912110E-03
 5  3 1.74597594E-11 4.89390756E-12-1.87329696E-03-5.16206793E-07 4.70399732E-07
 5  4 4.58070615E-08-3.02657507E-07 6.08468703E-14 1.71496191E-14-9.34179630E-03
 5  5-4.54592923E-05 2.34208800E-04 1.35209638E-11 3.96632988E-12 3.85760457E-05
 5  6 9.04480424E-12 2.65965837E-12-1.85329936E-04-6.95632270E-06-6.92796900E-06
 5  7 1.38842917E-05-8.69795793E-09 1.85464945E-14 5.18846800E-15
 6  1-2.65087440E-12 1.44046194E-11-2.22471863E-13 4.11237231E-13-9.70418941E-01
 6  2-2.41352511E-01-9.97139125E-09 1.66132079E-03 4.14803456E-04 1.64426857E-11
 6  3 1.76394645E-03 4.37953144E-04 1.86869058E-11 1.03547803E-14-1.63120794E-14
 6  4 5.95729908E-15 8.85780317E-15 6.12437422E-06 1.52373883E-06 1.23913393E-10
 6  5-1.63170337E-13-3.11154824E-12 1.35389274E-03 3.37006060E-04-3.97082870E-13
 6  6 9.05414652E-04 2.25391920E-04 1.86891965E-12 7.31990214E-14 7.22649566E-14
 6  7-1.45463978E-13-4.04849681E-16 1.86791560E-06 4.64214269E-07
 7  1-5.70661027E-14-7.34067038E-13-2.21673293E-16 8.89897667E-15 1.40352141E-03
 7  2 2.23805822E-04-5.00171045E-14-1.76669586E-03-4.62072803E-05 9.08260713E-14
 7  3 4.34385461E-03-1.26374225E-04 1.08502333E-13-4.28472302E-17-8.71669203E-16
 7  4 9.14516433E-16-2.39847916E-16 8.49930526E-04-3.87571693E-06 3.17631565E-12
 7  5-1.77865142E-13-2.03628992E-13 6.86956014E-01 2.85171337E-05-1.31251977E-13
 7  6 4.64068951E-01-3.10109603E-05-8.05359130E-14 2.13642150E-16 2.57851543E-16
 7  7-4.71493693E-16 7.95212838E-17 8.91498735E-05 1.96610046E-06
 8  1 1.83576842E-13 1.48008785E-12-4.50163772E-16-1.75552652E-14 2.23806502E-04
 8  2 5.61081392E-04-7.82849436E-13-4.62072739E-05-1.59276676E-03-1.82726696E-13
 8  3-1.26374228E-04 4.81954068E-03-2.16404823E-13 3.96483139E-16 1.16920626E-15
 8  4-1.56568940E-15-2.93746564E-16-3.87571662E-06 8.64519137E-04-8.15603514E-12
 8  5 4.55726732E-13 5.20893441E-13 2.85171746E-05 6.86848673E-01 2.70530051E-13
 8  6-3.10111166E-05 4.64185680E-01 1.66716579E-13-6.20058685E-16-6.66133335E-16
 8  7 1.28619202E-15 2.06870072E-17 1.96610041E-06 8.17492621E-05
 9  1-1.82118615E-04-1.59775836E-03-4.24587811E-03 1.21060683E-03 1.95679770E-14
 9  2-1.04470685E-13-2.64238936E-04-2.98783511E-16 9.84749395E-16-9.32305742E-03
 9  3 1.08431294E-15-2.46248536E-15-5.12658980E-03-3.50040256E-04-3.25560551E-04
 9  4 6.75600807E-04-7.50954527E-06 1.44843059E-16-4.82522635E-16 3.87012762E-02
 9  5 5.12961555E-01 5.68580883E-01 1.52937511E-13-3.90611419E-13 1.17940956E-02
 9  6 1.03481383E-13-2.64074316E-13 7.91088453E-03 6.24457290E-04 6.45984920E-04
 9  7-1.27044221E-03-6.60394834E-06-3.21967786E-16 1.34402466E-16
10  1 2.98692143E-16 2.34531775E-15 5.04512570E-15-5.38191350E-15 1.61615944E-03
10  2 4.02702975E-04-1.79413912E-16 4.97615271E-01 1.23992187E-01-1.57466033E-15
10  3 5.78239258E-01 1.44081490E-01 1.00365239E-15-5.11480979E-16 4.19595747E-16
10  4 9.18852317E-17 8.17988205E-16 8.25440269E-05 2.05677256E-05 1.19620146E-15
10  5-4.70984828E-15 4.52239483E-15-4.91183247E-03-1.22389501E-03-7.28310499E-17
10  6-3.48646328E-03-8.68731788E-04 1.24451367E-17-2.01423725E-18-4.25716114E-18
10  7 6.27139839E-18-9.90862752E-18-1.98270268E-04-4.94035561E-05
11  1-7.10169760E-05 7.81083597E-03 5.46583856E-01 5.37146146E-01 1.34432819E-14
11  2-1.55648892E-14-6.69813077E-06 6.12018103E-16 7.62712742E-17-5.36542445E-03
11  3-3.73468164E-16 3.12084405E-18-5.94524309E-03-3.36791098E-04-2.31418493E-05
11  4 3.59932947E-04-9.62169565E-05-3.24761946E-16 5.83428553E-16-1.89949850E-04
11  5-1.30313962E-03-1.66100599E-03 3.68391283E-15-8.25176790E-15 3.30288629E-03
11  6 2.68294031E-15-5.43267057E-15 1.47191559E-03-9.87855500E-05-9.71309500E-05
11  7 1.95916500E-04-5.07575314E-07 2.92955483E-17-6.72914261E-17
12  1-4.16948866E-03-3.30818525E-02-5.99895265E-02 6.00016246E-02-9.10932104E-16
12  2-1.64583748E-15-1.89485111E-03-6.61582429E-15 2.80435167E-15-1.71327200E-02
12  3 4.73819966E-15 2.72033165E-15 6.22522030E-04 4.15459139E-01-9.11210900E-01
12  4 4.95751761E-01 4.06977490E-01-3.71047405E-15-1.17942279E-14-8.75324430E-04
12  5-2.99891599E-03 9.87945257E-04-4.96866896E-15 8.18354040E-15 1.10440976E-02
12  6 5.68851557E-15-9.57060851E-15-2.02168439E-02 4.35507696E-04 4.60727044E-04
12  7-8.96234740E-04-7.73644270E-06-2.59322726E-16 1.73527718E-15
13  1 6.53381641E-04 5.06020205E-03 7.16649574E-03-1.15303766E-02-5.84580404E-16
13  2 2.28010759E-15 3.24247495E-04-7.21694826E-16 2.53144307E-15-3.42364267E-01
13  3 5.24918467E-16-1.18931362E-15-4.13462804E-01 1.66467869E-03 2.38439676E-03
13  4-4.04907545E-03-2.20785161E-04-1.71413145E-16-4.79522241E-16-8.53681033E-04
13  5-5.04273819E-03 1.36527785E-03 1.76052699E-13-3.58879365E-13 5.03625468E-01
13  6 1.19549586E-13-2.42148701E-13 3.10229050E-01 2.66274742E-04 2.60655086E-04
13  7-5.26929828E-04 1.72392066E-06 1.03088087E-16 7.27754276E-18
14  1-9.85302901E-05-7.85050833E-04-7.19267634E-03-4.28196482E-03-1.86867981E-15
14  2 3.69897708E-15-1.65337998E-03-5.56367777E-15 5.28053438E-15-3.77291918E-01
14  3 1.12702844E-14-3.53204850E-14-4.33873987E-01-6.95168329E-03 1.47595900E-02
14  4-7.80790675E-03-6.66028419E-03 5.81387451E-15-9.94693822E-15 6.68572396E-03
14  5 2.40687329E-02-7.23454255E-04-2.35139180E-13 4.77606099E-13-5.06959836E-01
14  6 2.71092238E-13-5.43743571E-13-3.00281205E-01-9.28600402E-03-9.28296058E-03
14  7 1.85689646E-02-9.33624524E-07 1.81422957E-15-3.70728714E-15
15  1-5.50953057E-04-4.37950754E-03-9.67816156E-03 6.18634864E-03-2.23611700E-15
15  2 4.34883468E-15-6.46534645E-04 4.66132654E-16 4.25554232E-15-1.70804207E-02
15  3 1.69724674E-14-4.23411573E-14-1.32090585E-02-6.83667472E-03 2.63709936E-03
15  4 4.19957536E-03-2.90623341E-03 5.76902952E-15-1.13444612E-14-2.87050480E-01
15  5-7.10297865E-01 6.97849049E-01-2.32510837E-13 5.64529992E-13-7.04682544E-03
15  6 2.65397591E-13-6.44173859E-13-1.12251211E-02 4.44519986E-01 4.44476276E-01
15  7-8.88996262E-01 1.34087606E-05 3.69116130E-15-1.37955248E-14
16  1 9.39104827E-16 4.56238685E-15 8.29767365E-15-1.72448475E-14 3.80116791E-04
16  2-6.92394729E-03 9.80054715E-15-5.59460230E-03-9.89631270E-03-1.40878345E-13
16  3-1.08935458E-02 6.53841930E-02-2.87651713E-13 4.19937168E-15-1.86899129E-14
16  4 1.44905412E-14 2.42969477E-14 3.82313620E-04 1.98011039E-02-5.01911483E-14
16  5-1.20907394E-13 1.29452710E-13-3.80212674E-04-9.16876597E-01-2.73153835E-13
16  6 6.51141511E-04 1.04566420E+00-1.62664234E-13 2.24994496E-13 2.28921868E-13
16  7-4.53916364E-13 4.96691363E-15 3.00380119E-05 7.43220789E-03
17  1-5.18977838E-16-1.92366211E-15-5.95383845E-15 1.02602410E-14-5.49314176E-03
17  2 3.80116343E-04 3.20669499E-15-3.09549604E-02-5.59459690E-03 1.08388647E-13
17  3 2.43797024E-02-1.08935346E-02 1.05409841E-13-4.40846635E-14 5.51176991E-14
17  4-1.10330356E-14 9.91994171E-14 2.12401512E-02 3.82313242E-04 1.21139664E-14
17  5 2.86085858E-14-3.20622085E-14-9.18306827E-01-3.80191107E-04 1.32127745E-13
17  6 1.04811404E+00 6.51116859E-04 8.03768392E-14-8.36175985E-14-7.46134295E-14
17  7 1.58231028E-13 8.75627934E-15 7.54526647E-03 3.00379953E-05
18  1-1.31207979E-01-1.04404670E+00-1.87657530E+00 1.89440290E+00 8.55136575E-17
18  2-5.11536777E-16-5.01617337E-03 1.30114841E-15-2.92331353E-16-2.33086221E-02
18  3 1.86116856E-16 2.67629254E-15 2.81794161E-02-1.39275870E-02 2.80067148E-02
18  4-1.40791278E-02-1.28640252E-02-1.98400344E-16 9.61361070E-16 3.22663294E-02
18  5 7.16248343E-02-9.42533333E-02 1.72315942E-14-3.29367504E-14-4.10263071E-02
18  6-1.92436028E-14 3.65152729E-14 9.13678807E-02 5.26991247E-03 5.26872463E-03
18  7-1.05386371E-02 3.64388704E-07-1.04100586E-16 1.22160462E-16
19  1 3.05938805E-03 2.43271469E-02 4.86911139E-02-3.93140574E-02 1.26843001E-15
19  2-2.18189587E-15-2.09070621E-01 2.68759836E-15-2.94499722E-15-1.06250675E+00
19  3-8.61396967E-15 6.86021727E-15 1.06043883E+00-6.44463989E-03-7.93916227E-04
19  4 7.23855612E-03-1.73345087E-03-7.38593115E-16 1.80335216E-15 2.79454236E-01
19  5 6.75849962E-01-7.15450102E-01 1.56030562E-14-5.87407752E-14-1.73946120E-01
19  6-1.80182444E-14 6.71788595E-14 2.79043159E-01 1.02947732E-01 1.02938473E-01
19  7-2.05886205E-01 2.84029932E-06 1.93169352E-16-1.31546638E-15
20  1 4.10303788E-18 9.52439830E-17 1.42526531E-16-1.94258269E-16 5.59046594E-02
20  2-2.24361014E-01 1.63451380E-15 2.86729740E-01-1.15072654E+00 6.81230304E-15
20  3-2.86339004E-01 1.14915840E+00-6.62826428E-15 4.73364160E-16-9.95454622E-16
20  4 5.22090462E-16 3.79937071E-16-3.44841618E-05 1.38394527E-04 2.77898203E-15
20  5 7.01969364E-15-6.41367823E-15-8.89453948E-03 3.56962748E-02 1.42293252E-15
20  6 1.39657684E-02-5.60485336E-02-2.04826816E-15 9.15868351E-16 5.19717319E-16
20  7-1.43558567E-15 1.99752241E-16-7.24221714E-04 2.90650401E-03
21  1-2.99904504E-17-3.22417150E-16-6.77241891E-16 1.85584829E-16 2.26778269E-01
21  2 5.65069736E-02 8.72058073E-16 1.16902851E+00 2.91290095E-01 3.49220102E-15
21  3-1.13005746E+00-2.81579568E-01-3.40963324E-15 1.91439303E-15-4.15121721E-15
21  4 2.23682418E-15 1.62881807E-15-1.60450887E-04-3.99799471E-05-3.60097419E-16
21  5-1.56438596E-15 1.73248184E-15-2.74489686E-02-6.83953799E-03 6.68405311E-16
21  6 4.61571586E-02 1.15011102E-02-1.16027744E-15-9.71657406E-16-1.19907158E-15
21  7 2.17072899E-15-1.56257749E-16-2.89409361E-03-7.21129357E-04
22  1-1.78765093E-03-1.42006009E-02-2.78274845E-02 2.35843523E-02-4.13051633E-16
22  2-1.05867407E-16-1.00163817E-01 4.12949935E-15-1.21349690E-14-5.25134492E-01
22  3 2.87754679E-15 4.37721082E-15 4.88869426E-01 2.07974587E-03 3.49827882E-03
22  4-5.57802469E-03-4.35157921E-04 1.23930724E-15-2.71389482E-15-4.83606552E-01
22  5-1.20447819E+00 1.16106318E+00-2.93540521E-14-6.48129264E-15-1.31249968E-01
22  6 3.35235307E-14 6.73379208E-15 1.89829824E-01-2.03870179E-01-2.03850621E-01
22  7 4.07720800E-01-5.99953941E-06-6.35078001E-16 3.35746856E-15
23  1 2.18104710E-03 1.73175892E-02 4.04022072E-02-2.24126660E-02 8.25344788E-17
23  2 9.90116261E-17 4.46381036E-02 5.68563374E-17 1.17589026E-15 2.60495344E-01
23  3-1.95630782E-16-5.10680582E-16-1.85690879E-01-6.90829797E-03-2.58145065E-02
23  4 3.27228045E-02 5.79978524E-03-2.63501165E-16-1.10614381E-17 1.74169510E-02
23  5 4.59586372E-02-3.61400199E-02 1.67380899E-15 1.72752272E-14-8.71950642E-01
23  6-2.08019026E-15-1.95688595E-14 1.01789908E+00 1.21170323E-02 1.21142782E-02
23  7-2.42313105E-02 8.44881736E-07 5.23151050E-17-2.84405598E-16
24  1 1.91364167E-16 1.41436894E-17 2.75772160E-16 6.05474232E-17 2.42369465E-04
24  2 6.03919414E-05-9.16998732E-17 1.51152745E-03 3.76631782E-04 4.56979274E-17
24  3-8.56605366E-04-2.13443163E-04 6.16280956E-16-1.52108898E-12 1.69436439E-12
24  4-1.73275414E-13 3.72003006E-12 9.01025570E-01 2.24511127E-01 1.03041898E-15
24  5 1.39269627E-15-8.43639101E-16 2.04437937E-02 5.09404381E-03-2.77955987E-15
24  6-2.51272028E-02-6.26102317E-03 2.15486571E-15-1.68428668E-13 1.69325583E-13
24  7-8.96914531E-16 3.31513613E-13 3.59496661E-01 8.95768166E-02
25  1 4.89691407E-17-3.59657871E-17 5.65349874E-16-4.85535899E-17 7.27630616E-05
25  2-2.92018532E-04 6.99431768E-16 6.69900871E-04-2.68849953E-03 1.00218133E-15
25  3-2.19161750E-05 8.79559562E-05-9.81754433E-16-4.03882487E-13 3.65570757E-13
25  4 3.83117299E-14 7.68687091E-13 2.22203229E-01-8.91763330E-01 2.83845076E-15
25  5 5.20754343E-15-5.11393693E-15 4.76884258E-03-1.91387121E-02 5.42473297E-16
25  6-5.89201936E-03 2.36463364E-02-2.35124336E-16 3.15610508E-14-3.62233775E-14
25  7 4.66232668E-15-1.36083170E-13 9.51760488E-02-3.81967945E-01
26  1 5.21405942E-15 1.00823460E-14-7.64840340E-12-7.78051408E-12 7.45960587E-17
26  2-1.25907072E-15 5.12973837E-15-4.45942583E-15-1.73536493E-14 7.24275989E-14
26  3 1.93336686E-15 2.05838341E-16 2.88862402E-14-2.87333627E-01 2.87333627E-01
26  4-1.96452457E-11 6.24435706E-01-1.93506100E-12 3.32066647E-12 4.82871827E-14
26  5 1.84409734E-13-1.89658155E-14 1.19655582E-14 1.55985405E-14-6.36617543E-13
26  6-9.13460187E-15-2.35695915E-14 5.07222339E-13 2.87333627E-01-2.87333627E-01
26  7-7.02523350E-14-6.24435706E-01-2.73525797E-12-7.66182139E-12
27  1 4.11073158E-08 2.83024926E-07 2.95242538E-06 1.77015757E-06-5.58357449E-17
27  2-5.21395160E-17 1.24836792E-06 2.75922181E-16-6.74756659E-16 1.76113358E-05
27  3-5.12972559E-17 9.09033387E-17 7.25432847E-06 7.29743066E-03 4.99968688E-04
27  4-7.79739935E-03 2.08523145E-03-8.33526286E-14 1.58992390E-13 5.75155581E-06
27  5 1.60265662E-05-1.17195231E-05-1.89423322E-16 6.06251518E-16-1.37742892E-04
27  6 3.80376132E-16-9.20996826E-16 8.37940338E-05-7.64683337E-01 7.64802717E-01
27  7-1.19380332E-04-4.69194582E-01 1.35561124E-13-3.10411396E-13
28  1-5.68497381E-15-1.03886781E-14 7.64784938E-12 7.78069675E-12 9.63151631E-16
28  2 2.08747032E-15-5.65975619E-15 6.94433474E-15 1.86196649E-14-7.66556851E-14
28  3-2.58628346E-15-6.23774582E-17-2.90759323E-14 2.87333185E-01-2.87333186E-01
28  4 1.90746954E-11-6.24434746E-01 1.84427094E-12-3.21617636E-12-4.72440354E-14
28  5-1.87185139E-13 1.47813719E-14-1.64738629E-14-1.66971013E-14 6.25476036E-13
28  6 1.44512918E-14 2.45628348E-14-5.02545714E-13 2.87333186E-01-2.87333186E-01
28  7 5.61530189E-13-6.24434746E-01 4.26108185E-12 8.25821274E-12
29  1 4.68536372E-16 6.31710299E-17 3.32062599E-16 2.32959678E-16 2.12171986E-04
29  2 5.28674921E-05 1.35053994E-16 1.65099423E-03 4.11382931E-04 2.03716114E-15
29  3-4.19201320E-04-1.04453527E-04 9.35349883E-16-1.75670898E-12 2.67655075E-12
29  4-9.19841777E-13 5.93264749E-12-3.59539679E-01-8.95875211E-02 1.61902894E-15
29  5 2.31983609E-15 2.15776901E-16-1.03964988E-03-2.59052933E-04-1.65923896E-14
29  6 1.79970675E-03 4.48438531E-04 9.35164505E-15-3.75353191E-13 3.86349925E-13
29  7-1.09967339E-14 9.93283161E-13 9.01247277E-01 2.24566339E-01
30  1-9.57768481E-17 2.55904045E-17 5.05226927E-16 2.52157297E-16-5.37373229E-05
30  2 2.15662836E-04 2.82258501E-16-5.33728374E-04 2.14200067E-03 1.71656700E-15
30  3-1.31832856E-05 5.29083220E-05 5.41972959E-16-3.82715132E-12 4.50143234E-12
30  4-6.74281016E-13 9.85803612E-12 9.51863888E-02-3.82009498E-01 8.11974576E-16
30  5 2.34485224E-15-9.09336841E-16 2.58409851E-04-1.03707262E-03-1.20551917E-14
30  6-4.61118493E-04 1.85059920E-03 7.11456085E-15-3.14750595E-13 3.32175613E-13
30  7-1.74250181E-14-8.29432164E-14-2.22250674E-01 8.91953867E-01
31  1-4.33216120E-06-3.32888830E-05-3.85951524E-04-2.58785412E-04 2.67861847E-16
31  2 3.12076833E-16-1.27928139E-04 1.30379148E-15 2.09371675E-15-1.94421621E-03
31  3-5.17436101E-16-4.46005062E-17-9.31658083E-04-8.13564417E-01-5.41533240E-02
31  4 8.67717741E-01-2.32961634E-01-1.35411081E-13-2.99602993E-13-6.58914104E-04
31  5-2.66716545E-03 4.81277480E-04-2.53782305E-15-2.14621884E-15 1.54920738E-02
31  6 3.07065013E-15 2.84656686E-15-9.02209324E-03-1.17362208E-02 1.99396976E-03
31  7 9.74225105E-03-4.21195801E-03 8.51688941E-13 9.62291835E-13
32  1-1.43798306E-18 1.84649443E-16-9.98885829E-16 1.02298510E-15-2.05691622E-03
32  2 8.25497968E-03-9.48918799E-16-1.34411921E-01 5.39432576E-01-1.37213991E-15
32  3-1.33461954E-01 5.35620092E-01 5.34741280E-15-3.67341372E-15 7.09614859E-15
32  4-3.42273487E-15-1.60575068E-15 5.96034431E-04-2.39205451E-03-1.06178804E-14
32  5-1.81940980E-14 1.78338189E-14-1.24871235E-02 5.01143946E-02 4.94346688E-16
32  6 1.65782201E-02-6.65331217E-02-2.48389960E-16 2.65464025E-15 2.46706489E-15
32  7-5.12170514E-15 8.21271287E-17 5.60820880E-04-2.25073147E-03
 $END
