 $CONTRL SCFTYP=GVB RUNTYP=ENERGY ICHARG=0 MULT=2 NOSYM=1 ICUT=11
  MAXIT=500 ISPHER=1 $END
 $SYSTEM MWORDS=312 $END
 $SCF NCO=9 NPAIR=2 NSETO=1 NO(1)=1 DIRSCF=.T. $END
 $GUESS GUESS=MOREAD NORB=32 $END
 $DATA
GAMESS inp file produced by MOKIT,nif=32,nbf=32
C1   1
Si   14.         0.00000000         0.00000000         0.00000000
   S 11
   1   7.88600000E+04   2.70437361E-04   0.00000000E+00
   2   1.18200000E+04   2.09714953E-03   0.00000000E+00
   3   2.69200000E+03   1.08504941E-02   0.00000000E+00
   4   7.63400000E+02   4.36749737E-02   0.00000000E+00
   5   2.49600000E+02   1.37651657E-01   0.00000000E+00
   6   9.02800000E+01   3.16640910E-01   0.00000000E+00
   7   3.52900000E+01   4.18576915E-01   0.00000000E+00
   8   1.45100000E+01   2.10209948E-01   0.00000000E+00
   9   4.05300000E+00   1.44950585E-02   0.00000000E+00
  10   1.48200000E+00  -2.03588013E-03   0.00000000E+00
  11   2.51700000E-01   6.24183908E-04   0.00000000E+00
   S 11
   1   7.88600000E+04  -7.21209338E-05   0.00000000E+00
   2   1.18200000E+04  -5.53591991E-04   0.00000000E+00
   3   2.69200000E+03  -2.92996280E-03   0.00000000E+00
   4   7.63400000E+02  -1.17363058E-02   0.00000000E+00
   5   2.49600000E+02  -4.01797968E-02   0.00000000E+00
   6   9.02800000E+01  -1.00332066E-01   0.00000000E+00
   7   3.52900000E+01  -1.95987042E-01   0.00000000E+00
   8   1.45100000E+01  -1.02100186E-01   0.00000000E+00
   9   4.05300000E+00   5.25738870E-01   0.00000000E+00
  10   1.48200000E+00   5.91618032E-01   0.00000000E+00
  11   2.51700000E-01   3.31736350E-02   0.00000000E+00
   S 11
   1   7.88600000E+04   3.38920342E-05   0.00000000E+00
   2   1.18200000E+04   2.60443163E-04   0.00000000E+00
   3   2.69200000E+03   1.37726900E-03   0.00000000E+00
   4   7.63400000E+02   5.53476510E-03   0.00000000E+00
   5   2.49600000E+02   1.89833843E-02   0.00000000E+00
   6   9.02800000E+01   4.80756033E-02   0.00000000E+00
   7   3.52900000E+01   9.59430205E-02   0.00000000E+00
   8   1.45100000E+01   5.32749453E-02   0.00000000E+00
   9   4.05300000E+00  -3.25925649E-01   0.00000000E+00
  10   1.48200000E+00  -6.35130495E-01   0.00000000E+00
  11   2.51700000E-01   1.14075717E+00   0.00000000E+00
   S  1
   1   9.24300000E-02   1.00000000E+00   0.00000000E+00
   P  7
   1   3.15900000E+02   3.92562090E-03   0.00000000E+00
   2   7.44200000E+01   2.98739534E-02   0.00000000E+00
   3   2.34800000E+01   1.27181575E-01   0.00000000E+00
   4   8.48800000E+00   3.20866241E-01   0.00000000E+00
   5   3.21700000E+00   4.55320076E-01   0.00000000E+00
   6   1.22900000E+00   2.68498769E-01   0.00000000E+00
   7   2.96400000E-01   1.88290956E-02   0.00000000E+00
   P  7
   1   3.15900000E+02  -1.68892302E-03   0.00000000E+00
   2   7.44200000E+01  -1.24033027E-02   0.00000000E+00
   3   2.34800000E+01  -5.67214851E-02   0.00000000E+00
   4   8.48800000E+00  -1.36672303E-01   0.00000000E+00
   5   3.21700000E+00  -2.35132796E-01   0.00000000E+00
   6   1.22900000E+00  -3.92726257E-02   0.00000000E+00
   7   2.96400000E-01   1.00408176E+00   0.00000000E+00
   P  1
   1   8.76800000E-02   1.00000000E+00   0.00000000E+00
   D  1
   1   2.75000000E-01   1.00000000E+00   0.00000000E+00

F     9.         0.00000000         0.00000000         2.73000000
   S  8
   1   1.47100000E+04   7.20673709E-04   0.00000000E+00
   2   2.20700000E+03   5.55048697E-03   0.00000000E+00
   3   5.02800000E+02   2.82542077E-02   0.00000000E+00
   4   1.42600000E+02   1.06395828E-01   0.00000000E+00
   5   4.64700000E+01   2.86684201E-01   0.00000000E+00
   6   1.67000000E+01   4.48437966E-01   0.00000000E+00
   7   6.35600000E+00   2.64641181E-01   0.00000000E+00
   8   1.31600000E+00   1.53260610E-02   0.00000000E+00
   S  8
   1   1.47100000E+04  -3.21193890E-04   0.00000000E+00
   2   2.20700000E+03  -2.54619157E-03   0.00000000E+00
   3   5.02800000E+02  -1.26433595E-02   0.00000000E+00
   4   1.42600000E+02  -5.19574917E-02   0.00000000E+00
   5   4.64700000E+01  -1.43447138E-01   0.00000000E+00
   6   1.67000000E+01  -3.32437623E-01   0.00000000E+00
   7   6.35600000E+00  -2.18659068E-01   0.00000000E+00
   8   1.31600000E+00   1.09559041E+00   0.00000000E+00
   S  1
   1   3.89700000E-01   1.00000000E+00   0.00000000E+00
   P  3
   1   2.26700000E+01   6.48340215E-02   0.00000000E+00
   2   4.97700000E+00   3.40535360E-01   0.00000000E+00
   3   1.34700000E+00   7.34646407E-01   0.00000000E+00
   P  1
   1   3.47100000E-01   1.00000000E+00   0.00000000E+00
   D  1
   1   1.64000000E+00   1.00000000E+00   0.00000000E+00

 $END
 $VEC
 1  1 9.91657468E-01 1.29073871E-01-4.46080970E-04-2.01946741E-03 1.87612163E-12
 1  2-6.53097131E-10 6.63624122E-03 6.89499267E-13-9.01361177E-13 3.68389769E-05
 1  3-3.41622825E-13 2.24619009E-12-6.79468880E-05 7.54982461E-07 2.66800979E-05
 1  4-2.74350804E-05-1.08965828E-05 1.09009426E-14 4.53243234E-14-5.36947588E-03
 1  5 8.22429492E-05 3.29247090E-04 4.94550085E-13 2.30212358E-12 3.28649921E-05
 1  6 3.72101528E-13 1.50762430E-12-1.86133694E-05-8.61777595E-07-7.69386745E-07
 1  7 1.63116434E-06-3.88327886E-08-5.53551243E-16 7.41177691E-15
 2  1 1.23133464E-01-9.36344074E-01 3.57696206E-03 1.30725775E-02 5.11958055E-09
 2  2-1.57345895E-08-2.40678052E-02 8.79289134E-12-2.70475251E-11-3.24688161E-04
 2  3-1.84852695E-11 5.73448491E-11 3.53851098E-04 6.42148668E-06-1.35299426E-04
 2  4 1.28877939E-04 5.95667033E-05-3.04552204E-13 1.33367281E-12 3.35516233E-01
 2  5-6.89585301E-03-9.75764698E-03-1.53986772E-11 6.88083493E-11-4.27051980E-04
 2  6-9.90637641E-12 4.56413945E-11-2.72728459E-06 3.15647528E-05 2.90446080E-05
 2  7-6.06093608E-05 1.05924181E-06-7.10284305E-14 2.05855395E-13
 3  1-9.48750736E-13-7.60036472E-09 1.14242446E-11 9.59161952E-11 3.09774254E-01
 3  2-9.51329956E-01-3.45833081E-09 5.31946143E-04-1.63548632E-03 1.19243216E-11
 3  3-1.12714255E-03 3.46247063E-03 7.09669939E-12-3.67493225E-12-2.52728556E-12
 3  4 6.20221781E-12-4.82678888E-13-2.52213132E-05 7.74680179E-05-7.06094917E-08
 3  5 1.41078348E-09 1.72474394E-09-1.29916105E-03 3.99068528E-03 3.75841999E-11
 3  6-8.59271211E-04 2.63944215E-03 2.57330416E-12-7.72937348E-12-7.33155372E-12
 3  7 1.50609272E-11-1.66659720E-13-4.08947577E-06 1.25607415E-05
 4  1-3.83554471E-02 3.31808194E-01-1.01228483E-03-4.49151218E-03 2.13364768E-08
 4  2-6.58188476E-08 7.35418612E-02 3.69409621E-11-1.13054594E-10-1.20433267E-04
 4  3-7.76543121E-11 2.39562976E-10-2.22982384E-04 5.06740759E-05 6.83622011E-05
 4  4-1.19036277E-04-7.43449428E-06-1.63267289E-12 5.40076683E-12 9.39724583E-01
 4  5-1.87472620E-02-2.25971162E-02-8.38724387E-11 2.78293673E-10-4.44839835E-04
 4  6-5.52058142E-11 1.84167910E-10-3.48458693E-05 1.03843490E-04 9.87140579E-05
 4  7-2.02557548E-04 2.15595118E-06-2.85315606E-13 8.67269656E-13
 5  1 7.78679067E-04 4.77226183E-02-2.57867538E-04-2.11213483E-04-1.57682984E-09
 5  2-1.81539378E-09-9.97015805E-01 4.34436244E-12-8.29129184E-13 1.41646811E-03
 5  3 2.29607052E-12 5.42991070E-12 2.03270413E-03 5.07775718E-05 1.76764256E-05
 5  4-6.84539974E-05 1.39127396E-05 2.56044074E-13 1.59442237E-13 6.12845065E-02
 5  5-2.06572236E-04-6.39145385E-04 1.25752918E-11 8.01943586E-12 1.80649859E-04
 5  6 8.81284873E-12 5.38985392E-12-8.50044845E-05 2.16444321E-05 2.08992244E-05
 5  7-4.25436565E-05 3.13218191E-07 8.66613710E-15 2.12031785E-14
 6  1 1.97350263E-10 1.50888367E-10-6.99498662E-13-1.19722520E-12 9.50816320E-01
 6  2 3.09607183E-01-2.04747044E-09-1.79433333E-03-5.83670311E-04 2.91550330E-12
 6  3-1.67459217E-03-5.45600206E-04 4.15793716E-12 1.08863619E-13 4.76022575E-14
 6  4-1.56465876E-13 2.64750343E-14-5.54101476E-05-1.80467771E-05 2.11983885E-10
 6  5-2.11961189E-12-3.31936183E-12-2.35161490E-03-7.66032889E-04 3.37540039E-13
 6  6-1.58622639E-03-5.16700379E-04-1.81944975E-13 5.45966783E-14 5.20478557E-14
 6  7-1.06644534E-13 3.93577772E-16-9.23410966E-06-3.00741567E-06
 7  1-1.88412343E-12 5.40976932E-12 1.60934716E-14-6.62375642E-14 1.83439184E-03
 7  2 5.97004914E-04 1.33761179E-11-5.90085176E-04-1.92040931E-04-5.73367085E-13
 7  3 1.59406974E-02 5.18783589E-03-6.64001990E-13 2.00935067E-14 2.50337859E-14
 7  4-4.51272926E-14-2.59985716E-15 9.77940436E-03 3.18266798E-03-1.27247588E-11
 7  5 7.16964822E-13 9.21986795E-13 6.47664649E-01 2.10779867E-01 9.99572564E-13
 7  6 4.46108458E-01 1.45184212E-01 6.86161948E-13 2.52855090E-15 2.61290066E-15
 7  7-5.14145156E-15-1.03020945E-17-1.02060812E-03-3.32152823E-04
 8  1 7.20257284E-13 1.13937350E-12 7.06134114E-15-1.09284113E-14-1.31221027E-03
 8  2 4.03206105E-03-2.16937373E-12-3.84303167E-04 1.18085046E-03-1.25544232E-13
 8  3-6.60987746E-03 2.03102121E-02-1.37650301E-13 4.93326505E-15 6.21018425E-15
 8  4-1.11434493E-14-5.52397891E-16-3.32063816E-03 1.02033461E-02-7.51221887E-13
 8  5 4.01082166E-14 6.35511802E-14-2.10480941E-01 6.46746136E-01 2.22914542E-13
 8  6-1.45372141E-01 4.46685911E-01 1.52184502E-13 7.66141693E-16 7.50412607E-16
 8  7-1.51655430E-15 5.97584094E-17 3.56081218E-04-1.09413303E-03
 9  1-3.55323865E-04-4.55380941E-03-1.63884909E-02-4.05440904E-03-6.39201949E-14
 9  2 5.62309152E-14 8.22817385E-04 3.69966520E-16 3.97711312E-16-3.24354892E-02
 9  3-1.62849288E-14-7.39045087E-15-2.90929169E-02-1.17022485E-03-8.09907232E-04
 9  4 1.98013208E-03-1.51445062E-04-1.02607354E-14-4.34228744E-15 3.72723511E-02
 9  5 5.07957476E-01 5.73090844E-01-6.84026856E-13-2.78837352E-13 6.70121001E-02
 9  6-4.71355347E-13-1.92218791E-13 4.71822196E-02 6.88237016E-04 7.64844494E-04
 9  7-1.45308151E-03-3.21988815E-05 1.08778157E-15 4.00281367E-16
10  1-4.22660728E-18 2.69309085E-17 2.15331301E-17-6.02049041E-17 4.03792989E-03
10  2 1.31412832E-03-1.82757250E-17 5.00303755E-01 1.62821879E-01 9.75594529E-17
10  3 5.55081275E-01 1.80649006E-01-7.23591151E-17-9.10738092E-17 1.61138568E-16
10  4-7.00647591E-17 4.97980395E-16-6.61120884E-03-2.15159178E-03 5.56707079E-17
10  5 1.98280512E-17 8.85451181E-18-2.70959691E-02-8.81827605E-03-6.30660098E-17
10  6-2.65080544E-02-8.62694146E-03-6.75909014E-17 4.54341731E-18-2.22893876E-18
10  7-2.31447855E-18-6.83186914E-19-1.13135306E-03-3.68194381E-04
11  1 9.79274692E-04 1.58217494E-02 5.60075504E-01 5.20793845E-01 8.28913558E-15
11  2-3.44544056E-14 6.61477354E-04 2.90079231E-16-1.37009627E-16-4.25948195E-02
11  3-1.99509390E-15-1.10894610E-15-5.40093736E-02 1.43284559E-03 1.62697048E-03
11  4-3.05981607E-03-8.15926075E-05-7.84042791E-16-3.13079256E-16-3.49765777E-04
11  5-4.44936760E-03-1.29096909E-02-7.85785123E-14-4.66152902E-14 1.38043783E-02
11  6-5.32568093E-14-3.23332498E-14 1.03944586E-02-5.51854202E-04-5.27939188E-04
11  7 1.07979339E-03-1.00517169E-05 8.31832452E-17 1.75884043E-16
12  1-6.96926419E-03-5.55250728E-02-1.08014615E-01 9.23693468E-02 9.75795093E-16
12  2 8.27389415E-16-6.08667079E-03 4.75164742E-15 1.12283007E-14-8.81251565E-02
12  3-2.05392118E-15 6.08494114E-15-4.17325865E-02 3.90800210E-01-8.33398911E-01
12  4 4.42598701E-01 5.14543014E-01-2.77518477E-14-1.47730952E-14-8.83448266E-03
12  5-3.06407767E-02 8.89507107E-03 1.12961764E-13 3.59784821E-14 7.38158024E-02
12  6-1.27000079E-13-3.82936358E-14-1.07353369E-01-2.63178779E-03-2.52823021E-03
12  7 5.16001800E-03-4.35262782E-05-1.16887951E-14-3.37446371E-15
13  1 6.24387144E-04 4.76519077E-03-9.35073919E-03-2.62679015E-02 3.15378095E-15
13  2-5.65988056E-15-9.15191886E-04 1.04657423E-15 4.42036003E-16-2.94528101E-01
13  3-2.57948885E-14-1.72124912E-14-3.29718381E-01 1.20354396E-02 1.42419426E-02
13  4-2.62773822E-02-9.27415060E-04-1.61326840E-14-1.00764074E-14-4.63963142E-03
13  5-4.01787657E-02-6.84422917E-03-1.06777527E-12-6.47953701E-13 5.15295400E-01
13  6-7.35199367E-13-4.46839596E-13 3.53959665E-01 1.99257180E-03 1.93782245E-03
13  7-3.93039425E-03 2.30116930E-05 1.63239328E-15 7.92437873E-16
14  1 1.67763848E-03 1.30016486E-02-2.38238935E-02-7.17848408E-02 1.05586091E-14
14  2 1.51009775E-14-2.06187758E-03 1.14330455E-13 3.53675139E-16-4.15221031E-01
14  3 2.95554100E-14-1.57501931E-13-4.84402106E-01-2.28782287E-02 9.25961364E-02
14  4-6.97179077E-02-4.85350192E-02-4.42110383E-13-2.47062133E-13 3.50135879E-02
14  5 1.26037217E-01 1.25104156E-02 1.38937123E-12 8.21533175E-13-5.11092954E-01
14  6-1.55602159E-12-9.05169807E-13-2.35119598E-01-4.62919818E-02-4.60192678E-02
14  7 9.23112496E-02-1.14624432E-04-1.39993598E-13-7.78109374E-14
15  1-4.80181915E-03-3.84871088E-02-8.89009209E-02 4.91463196E-02 3.81689568E-15
15  2-2.77679220E-15-5.63762564E-03 5.73380352E-14 2.31054000E-14-1.05360282E-01
15  3-2.00868492E-14 1.91077789E-14-7.09452700E-02-5.56632216E-02 3.22198499E-02
15  4 2.34433717E-02-3.69381253E-02-2.60893800E-13-6.79698250E-14-2.98751995E-01
15  5-7.35845752E-01 7.35965137E-01 8.22207225E-13 2.25361235E-13 1.15742144E-02
15  6-9.21488098E-13-2.51492490E-13-1.09594779E-01 4.33323310E-01 4.30510546E-01
15  7-8.63833856E-01 1.18223241E-03-8.12384436E-14-2.76605174E-14
16  1-8.33077873E-15-1.26200507E-14-6.22424975E-14 2.12232580E-14 7.54112000E-03
16  2-2.31716641E-02 3.31385024E-14-2.46235244E-02 7.56606948E-02-6.95267278E-14
16  3-1.11700080E-01 3.43221528E-01-3.37235566E-13 3.37184021E-14-1.11997952E-13
16  4 7.82795500E-14 1.21584521E-13-6.91111604E-02 2.12358950E-01-1.11427655E-13
16  5-2.04825648E-13 2.81372416E-13 2.48069407E-01-7.62246579E-01-1.78978779E-13
16  6-2.66413099E-01 8.18611512E-01-1.51450015E-13 1.39618649E-13 1.39126494E-13
16  7-2.78745143E-13-2.22059968E-16-2.18885722E-02 6.72573601E-02
17  1-2.32824762E-14-4.48846042E-14-1.17431297E-13-7.38436157E-14-7.47751050E-03
17  2-2.43354641E-03-3.19570160E-13-5.79469339E-02-1.88585344E-02-1.86696094E-12
17  3 1.11420585E-02 3.62643804E-03 5.76949818E-14-1.51091284E-13 1.11046506E-13
17  4 4.00447782E-14-1.57342678E-13 2.63154315E-01 8.56427176E-02-5.51460848E-14
17  5-4.09376339E-13 4.52491750E-13-8.34087730E-01-2.71451254E-01-7.75273789E-13
17  6 9.32732211E-01 3.03554722E-01-5.64220154E-13 5.06915994E-13 5.07639786E-13
17  7-1.01455578E-12 2.43125488E-15 8.33778686E-02 2.71350565E-02
18  1 1.32644099E-01 1.05490894E+00 1.86060024E+00-1.95182558E+00 1.08989597E-16
18  2-4.19420401E-16 5.18944855E-02 2.94585399E-15 4.65471835E-15 2.08499891E-01
18  3-1.04455629E-14 4.30580991E-15-3.48269488E-01 7.71808471E-02 1.48456211E-02
18  4-9.20264682E-02 2.62001128E-02 1.90758080E-15 5.57152928E-15-1.88006500E-01
18  5-4.13640853E-01 6.10637783E-01-6.41735233E-14-3.52831825E-14 1.44288265E-01
18  6 7.29810960E-14 3.90881850E-14-3.47101107E-01-2.42504089E-02-2.41060082E-02
18  7 4.83564171E-02-6.06930701E-05 1.91113881E-15 2.51938551E-15
19  1 2.48401194E-02 1.98408006E-01 3.97398948E-01-3.16434912E-01-3.70265935E-14
19  2-7.57809256E-15-2.11947519E-01-1.67286229E-13-9.05381045E-14-1.01170304E+00
19  3 2.40610743E-13 4.82649092E-15 1.17473428E+00-9.36221199E-02-8.52954601E-02
19  4 1.78917580E-01-3.49977755E-03-4.07129217E-14-6.71566446E-14 3.16832574E-01
19  5 7.34546679E-01-9.38434267E-01 7.46110564E-13 3.63538198E-13-1.84574182E-01
19  6-8.51749873E-13-4.06887419E-13 3.65570921E-01 1.03302701E-01 1.02676407E-01
19  7-2.05979108E-01 2.63237636E-04-2.61110569E-14-2.45609292E-14
20  1-2.60854335E-17-4.48524812E-16-1.58234254E-15 1.75020107E-15-7.11161941E-02
20  2 2.18519143E-01-7.68960262E-16-3.61920056E-01 1.11207386E+00-6.68499820E-15
20  3 3.67523366E-01-1.12929119E+00 6.20798657E-15 3.13968169E-16-6.97140205E-16
20  4 3.83172036E-16 1.49832370E-16 6.23953257E-03-1.91722360E-02-4.19945403E-15
20  5-1.23914185E-14 1.07336379E-14 5.03717337E-02-1.54777557E-01-1.95451971E-15
20  6-8.10394435E-02 2.49010411E-01 3.01796854E-15 3.57746545E-16 4.20582450E-16
20  7-7.78328995E-16 2.47557276E-17 4.80463693E-03-1.47632321E-02
21  1 4.39335647E-15 3.18974370E-14 7.68830381E-14-5.53117525E-14 2.23054709E-01
21  2 7.25922732E-02-4.99212390E-14 1.14056532E+00 3.71192496E-01-1.69793061E-13
21  3-1.12176168E+00-3.65072880E-01 2.13769242E-13-2.83270785E-14-2.35200991E-14
21  4 5.18471776E-14-4.99430835E-16-2.00220552E-02-6.51607631E-03 9.72270247E-14
21  5 1.96400344E-13-2.34773641E-13-6.37816226E-02-2.07575617E-02-6.35676172E-14
21  6 1.43544776E-01 4.67161694E-02 1.05268272E-13 4.21371729E-14 4.18116555E-14
21  7-8.39488284E-14 1.41333329E-16-1.71994606E-02-5.59748945E-03
22  1-5.60977056E-03-4.40924382E-02-7.33207495E-02 8.86281122E-02 8.84699821E-15
22  2-1.00842804E-14-8.08041242E-02 3.84053380E-14 1.15968658E-14-4.09640208E-01
22  3-7.45044847E-14 9.16916683E-14 4.24634077E-01 5.41137896E-03-2.44022729E-02
22  4 1.89908939E-02 1.25309731E-02 3.36898724E-14 6.70351475E-14-4.32823087E-01
22  5-1.09237846E+00 9.84264806E-01 1.00215720E-14-2.61604867E-13-3.95528564E-01
22  6-7.60661545E-15 2.85895009E-13 5.20375250E-01-1.92517602E-01-1.91222040E-01
22  7 3.83739642E-01-5.44537178E-04 6.80824525E-15 2.42245255E-14
23  1-8.30152203E-03-6.72846796E-02-1.69206797E-01 6.84063573E-02 1.55055960E-14
23  2-1.24778374E-15-8.63532138E-02 8.46414426E-14 1.69223592E-14-5.30769830E-01
23  3-7.67946737E-14 2.03430989E-14 2.92459941E-01 1.57732692E-01 1.90523296E-01
23  4-3.48255988E-01-1.37822153E-02 4.82800572E-14 2.97037793E-14-1.18079701E-01
23  5-2.94921212E-01 2.57857081E-01 3.09306380E-13-3.98492509E-14 7.49992561E-01
23  6-3.44547730E-13 4.24174644E-14-9.08446869E-01-9.89541447E-02-9.83877793E-02
23  7 1.97341924E-01-2.38049009E-04 3.08724323E-15 8.65439049E-15
24  1 3.86632088E-15 6.70630043E-15 1.17287799E-14-1.22708109E-14-4.89039127E-03
24  2 1.50267294E-02-1.58233992E-14-5.10506855E-02 1.56863717E-01-4.15488538E-14
24  3-5.59747416E-03 1.71994153E-02 4.50709442E-14-6.97463805E-14 1.08903057E-13
24  4-3.91566767E-14 9.24055195E-14-2.76971626E-01 8.51050226E-01 2.67047673E-14
24  5 5.76904770E-14-6.33267127E-14-9.44951730E-02 2.90356282E-01-6.10902582E-15
24  6 1.21249979E-01-3.72565867E-01 6.91037459E-15-4.33767144E-14-4.28523700E-14
24  7 8.62290844E-14-2.39619851E-15-8.62682454E-02 2.65076280E-01
25  1-6.19158967E-16-9.11110624E-15 9.80639834E-15-6.06335821E-15-6.45141825E-03
25  2-2.09960580E-03-9.36682575E-14-4.47739488E-02-1.45715857E-02-2.77230237E-13
25  3 1.69970703E-02 5.53172453E-03 2.79021583E-13 9.13192682E-14 7.71893398E-14
25  4-1.68508608E-13 1.18859405E-13-8.71092930E-01-2.83494268E-01 5.56780906E-14
25  5 3.10601850E-14-7.49575432E-14-2.70150890E-01-8.79199758E-02 2.66007020E-14
25  6 3.44302119E-01 1.12052267E-01-2.31988265E-14 4.33485137E-14 3.36245374E-14
25  7-7.69730511E-14-2.86188949E-15-2.72783246E-01-8.87763900E-02
26  1-1.07987068E-14 1.74554223E-13-9.17198531E-13-7.68521125E-13-5.42956585E-16
26  2-6.87629153E-16-5.33598010E-14 4.47402121E-16 3.91102514E-16-1.57116526E-12
26  3-1.95054860E-16 1.55979521E-16-1.22352295E-12-3.60513743E-01 3.60513743E-01
26  4-9.09889825E-12 5.71822110E-01 7.12743252E-14-3.58726908E-14 3.70691675E-13
26  5 1.26197347E-12-2.99346392E-13-8.17356428E-15 7.35285680E-15-3.74326325E-12
26  6 6.58388522E-15-6.78718948E-15 5.18628703E-13 3.60513743E-01-3.60513743E-01
26  7-1.84114143E-12-5.71822110E-01 1.21574930E-13-1.55817618E-13
27  1 5.96710751E-07 3.80917647E-06-5.82537339E-05-7.78276023E-05 1.33100480E-17
27  2-5.99112741E-17-2.45594626E-05-2.30528123E-17 8.85009680E-18-4.41138684E-04
27  3 1.13195132E-17-1.82198816E-17-3.17182418E-04-9.72942688E-03-7.72894918E-04
27  4 1.05023218E-02-3.76451908E-03 1.20836894E-15 7.89172310E-16-2.37423936E-04
27  5-7.93382472E-04 2.74370899E-04 4.57422403E-17-1.74249177E-16 2.25999623E-03
27  6-9.44055494E-17 1.27162686E-16-1.38423192E-03 6.98152353E-01-7.02017686E-01
27  7 3.86533241E-03 5.88505333E-01-4.57902569E-15 3.70091276E-15
28  1-1.10657999E-14 1.75868761E-13-9.38269886E-13-7.93518592E-13-2.82296722E-17
28  2 1.32186741E-16-5.29531139E-14 2.15103179E-16 4.64725435E-16-1.57852204E-12
28  3-1.62054792E-16 4.08365968E-16-1.24147637E-12-3.60316293E-01 3.60316293E-01
28  4-8.95139958E-12 5.71508928E-01 5.80298261E-14-1.89182108E-14 3.74089218E-13
28  5 1.22177064E-12-3.16819260E-13-7.92649712E-15 8.11421414E-15-3.72064184E-12
28  6 6.92079696E-15-8.63854726E-15 4.85860193E-13-3.60316293E-01 3.60316293E-01
28  7-2.58425541E-12 5.71508928E-01 1.34636042E-13-2.12239181E-13
29  1-1.04531455E-15 5.67522605E-16 1.23355584E-15-1.13896869E-15 5.49852277E-05
29  2-1.68953102E-04-1.43971058E-15 2.51423579E-04-7.72548117E-04-2.62423557E-15
29  3-3.11383685E-04 9.56790188E-04 3.70273106E-15 1.49054049E-13-1.35120400E-13
29  4-1.39336489E-14-2.15789141E-13-9.03172519E-02 2.77518477E-01 2.26309732E-15
29  5 5.97429967E-15-5.74581000E-15-2.04182534E-03 6.27401038E-03-3.03387502E-15
29  6 6.98604278E-03-2.14661518E-02 2.29337067E-15 1.95014650E-14-3.11857721E-14
29  7 1.16843071E-14-3.21090838E-14 2.95462798E-01-9.07870772E-01
30  1-2.18233552E-16-5.76377551E-16 1.84068551E-15-1.65104222E-16 7.51231734E-04
30  2 2.44484790E-04-7.07321129E-15 5.68025918E-03 1.84861968E-03-1.75557659E-14
30  3-1.52297902E-03-4.95638737E-04 2.43039853E-14 1.25751536E-13-2.28775351E-14
30  4-1.02874001E-13-1.83210945E-14-2.80146861E-01-9.11726360E-02 6.67389388E-15
30  5 9.38066650E-15-7.76689171E-15-4.40162029E-03-1.43250852E-03-1.81379322E-14
30  6 1.91217040E-02 6.22309988E-03 1.08946042E-14 1.27297757E-14 7.52265377E-15
30  7-2.02524295E-14 4.49123972E-15 9.07040568E-01 2.95192615E-01
31  1-2.21291103E-04-1.89112804E-03-8.66303166E-03-2.46168706E-03 4.27787332E-17
31  2-1.15900894E-16-2.01885687E-03 1.73673274E-15 3.61662493E-16-3.54601634E-02
31  3-2.18328556E-15 9.69886668E-16-2.51477403E-02-7.48645518E-01-8.90369693E-02
31  4 8.37682487E-01-2.77240005E-01-2.26276382E-13-5.32788883E-14-1.81328442E-02
31  5-6.40996506E-02 1.71929738E-02 2.98148412E-14 3.96090976E-15 1.83939881E-01
31  6-2.22241117E-14-2.09287890E-15-1.13408897E-01-7.05649768E-02-5.26099432E-02
31  7 1.23174920E-01-7.54667844E-03 5.59170949E-14 8.95477907E-15
32  1 4.48229481E-15 9.13375907E-15 1.68324555E-14-1.64072604E-14-6.21366238E-03
32  2 1.90927686E-02-1.76245338E-14-1.75121307E-01 5.38096369E-01-4.13266568E-14
32  3-1.35487228E-01 4.16312393E-01 4.86208873E-14-1.96924748E-15 3.89795896E-14
32  4-3.70103421E-14-7.52924804E-14 7.98532848E-02-2.45366042E-01 3.72466718E-14
32  5 8.13075064E-14-8.77444810E-14-9.50878299E-02 2.92178201E-01-1.04079530E-14
32  6 1.21027504E-01-3.71883313E-01 1.27949119E-14-5.51311031E-14-5.52304649E-14
32  7 1.10361568E-13 3.23918027E-16 2.33456665E-02-7.17344882E-02
 $END
