 $CONTRL SCFTYP=GVB RUNTYP=ENERGY ICHARG=0 MULT=2 NOSYM=1 ICUT=11
  MAXIT=500 ISPHER=1 $END
 $SYSTEM MWORDS=312 $END
 $SCF NCO=9 NPAIR=2 NSETO=1 NO(1)=1 DIRSCF=.T. $END
 $GUESS GUESS=MOREAD NORB=32 $END
 $DATA
GAMESS inp file produced by MOKIT,nif=32,nbf=32
C1   1
Si   14.         0.00000000         0.00000000         0.00000000
   S 11
   1   7.88600000E+04   2.70437361E-04   0.00000000E+00
   2   1.18200000E+04   2.09714953E-03   0.00000000E+00
   3   2.69200000E+03   1.08504941E-02   0.00000000E+00
   4   7.63400000E+02   4.36749737E-02   0.00000000E+00
   5   2.49600000E+02   1.37651657E-01   0.00000000E+00
   6   9.02800000E+01   3.16640910E-01   0.00000000E+00
   7   3.52900000E+01   4.18576915E-01   0.00000000E+00
   8   1.45100000E+01   2.10209948E-01   0.00000000E+00
   9   4.05300000E+00   1.44950585E-02   0.00000000E+00
  10   1.48200000E+00  -2.03588013E-03   0.00000000E+00
  11   2.51700000E-01   6.24183908E-04   0.00000000E+00
   S 11
   1   7.88600000E+04  -7.21209338E-05   0.00000000E+00
   2   1.18200000E+04  -5.53591991E-04   0.00000000E+00
   3   2.69200000E+03  -2.92996280E-03   0.00000000E+00
   4   7.63400000E+02  -1.17363058E-02   0.00000000E+00
   5   2.49600000E+02  -4.01797968E-02   0.00000000E+00
   6   9.02800000E+01  -1.00332066E-01   0.00000000E+00
   7   3.52900000E+01  -1.95987042E-01   0.00000000E+00
   8   1.45100000E+01  -1.02100186E-01   0.00000000E+00
   9   4.05300000E+00   5.25738870E-01   0.00000000E+00
  10   1.48200000E+00   5.91618032E-01   0.00000000E+00
  11   2.51700000E-01   3.31736350E-02   0.00000000E+00
   S 11
   1   7.88600000E+04   3.38920342E-05   0.00000000E+00
   2   1.18200000E+04   2.60443163E-04   0.00000000E+00
   3   2.69200000E+03   1.37726900E-03   0.00000000E+00
   4   7.63400000E+02   5.53476510E-03   0.00000000E+00
   5   2.49600000E+02   1.89833843E-02   0.00000000E+00
   6   9.02800000E+01   4.80756033E-02   0.00000000E+00
   7   3.52900000E+01   9.59430205E-02   0.00000000E+00
   8   1.45100000E+01   5.32749453E-02   0.00000000E+00
   9   4.05300000E+00  -3.25925649E-01   0.00000000E+00
  10   1.48200000E+00  -6.35130495E-01   0.00000000E+00
  11   2.51700000E-01   1.14075717E+00   0.00000000E+00
   S  1
   1   9.24300000E-02   1.00000000E+00   0.00000000E+00
   P  7
   1   3.15900000E+02   3.92562090E-03   0.00000000E+00
   2   7.44200000E+01   2.98739534E-02   0.00000000E+00
   3   2.34800000E+01   1.27181575E-01   0.00000000E+00
   4   8.48800000E+00   3.20866241E-01   0.00000000E+00
   5   3.21700000E+00   4.55320076E-01   0.00000000E+00
   6   1.22900000E+00   2.68498769E-01   0.00000000E+00
   7   2.96400000E-01   1.88290956E-02   0.00000000E+00
   P  7
   1   3.15900000E+02  -1.68892302E-03   0.00000000E+00
   2   7.44200000E+01  -1.24033027E-02   0.00000000E+00
   3   2.34800000E+01  -5.67214851E-02   0.00000000E+00
   4   8.48800000E+00  -1.36672303E-01   0.00000000E+00
   5   3.21700000E+00  -2.35132796E-01   0.00000000E+00
   6   1.22900000E+00  -3.92726257E-02   0.00000000E+00
   7   2.96400000E-01   1.00408176E+00   0.00000000E+00
   P  1
   1   8.76800000E-02   1.00000000E+00   0.00000000E+00
   D  1
   1   2.75000000E-01   1.00000000E+00   0.00000000E+00

F     9.         0.00000000         0.00000000         3.27000000
   S  8
   1   1.47100000E+04   7.20673709E-04   0.00000000E+00
   2   2.20700000E+03   5.55048697E-03   0.00000000E+00
   3   5.02800000E+02   2.82542077E-02   0.00000000E+00
   4   1.42600000E+02   1.06395828E-01   0.00000000E+00
   5   4.64700000E+01   2.86684201E-01   0.00000000E+00
   6   1.67000000E+01   4.48437966E-01   0.00000000E+00
   7   6.35600000E+00   2.64641181E-01   0.00000000E+00
   8   1.31600000E+00   1.53260610E-02   0.00000000E+00
   S  8
   1   1.47100000E+04  -3.21193890E-04   0.00000000E+00
   2   2.20700000E+03  -2.54619157E-03   0.00000000E+00
   3   5.02800000E+02  -1.26433595E-02   0.00000000E+00
   4   1.42600000E+02  -5.19574917E-02   0.00000000E+00
   5   4.64700000E+01  -1.43447138E-01   0.00000000E+00
   6   1.67000000E+01  -3.32437623E-01   0.00000000E+00
   7   6.35600000E+00  -2.18659068E-01   0.00000000E+00
   8   1.31600000E+00   1.09559041E+00   0.00000000E+00
   S  1
   1   3.89700000E-01   1.00000000E+00   0.00000000E+00
   P  3
   1   2.26700000E+01   6.48340215E-02   0.00000000E+00
   2   4.97700000E+00   3.40535360E-01   0.00000000E+00
   3   1.34700000E+00   7.34646407E-01   0.00000000E+00
   P  1
   1   3.47100000E-01   1.00000000E+00   0.00000000E+00
   D  1
   1   1.64000000E+00   1.00000000E+00   0.00000000E+00

 $END
 $VEC
 1  1 9.82224738E-01 1.88238019E-01-6.83539460E-04-2.84139150E-03-9.16417037E-11
 1  2 4.70756334E-10 4.23446554E-03 1.26028278E-13 8.84405591E-13 2.48946634E-05
 1  3 1.36108668E-13-1.65771524E-12-5.78302041E-05-1.10215948E-05 3.41831004E-05
 1  4-2.31615056E-05-1.59649189E-06-2.30697132E-14-5.50235012E-15 2.49852850E-03
 1  5-9.29810752E-05 9.11455456E-05-4.01454949E-12-5.03186553E-13 4.33144372E-05
 1  6-2.80258357E-12-2.82922085E-13-8.66274352E-05-1.77622474E-06-1.75914035E-06
 1  7 3.53536509E-06-6.03367486E-10 3.18895018E-17-4.73779704E-15
 2  1 1.87171621E-01-9.82779718E-01 3.74934358E-03 1.37302139E-02 4.74117715E-11
 2  2-1.12553403E-08-1.94345985E-02 1.11087651E-12-2.09430393E-11-1.19690209E-04
 2  3-5.46306244E-13 3.97575250E-11 2.56935528E-04 4.75345708E-05-1.43910773E-04
 2  4 9.63762025E-05 6.76126539E-06 5.83584668E-14 2.11442271E-13 6.55640442E-02
 2  5-1.20848668E-03-2.35611159E-03 9.83437104E-12 2.54840167E-11-2.17483162E-04
 2  6 6.87340111E-12 1.61509675E-11 3.58105961E-04 1.39572224E-05 1.36414390E-05
 2  7-2.75986614E-05 1.11525041E-08 1.06301195E-15 8.92355007E-14
 3  1-1.47719514E-02 6.35415865E-02-1.22359264E-04-9.02195474E-04 2.78670456E-09
 3  2-1.10691788E-07 2.47748629E-02 7.26278272E-12-2.06183888E-10-6.98905812E-05
 3  3-1.06545340E-11 3.90941274E-10-9.51747431E-05 3.55461843E-05 3.57510626E-05
 3  4-7.12972469E-05-7.23568319E-09 4.43477080E-14 2.01294970E-12 9.97206209E-01
 3  5-2.00778789E-02-2.41896191E-02 9.87255155E-12 2.39459148E-10-1.24011860E-04
 3  6 7.30356054E-12 1.51066097E-10-5.96338261E-05 1.05711429E-04 1.03162600E-04
 3  7-2.08874029E-04 9.00168395E-08-2.10501336E-14 8.77712830E-13
 4  1 5.34433694E-12-4.11634584E-09 2.89958040E-11 5.59405852E-11-3.07519539E-02
 4  2 1.00004044E+00 2.86144964E-09-5.65996760E-05 1.86329822E-03-9.62543564E-12
 4  3 1.08275071E-04-3.53183409E-03-8.28722177E-12 4.47253876E-12 2.32363605E-12
 4  4-6.79617481E-12 7.67176592E-14 5.55615468E-07-1.80367657E-05 1.11087281E-07
 4  5-2.23563820E-09-2.70350874E-09 6.58575215E-05-2.13827629E-03-1.61895601E-11
 4  6 4.15153648E-05-1.34729540E-03-2.60528129E-12 1.18496544E-11 1.15639890E-11
 4  7-2.34136434E-11 1.07806280E-14 2.43173710E-07-7.92301012E-06
 5  1-1.45683015E-04-2.13740928E-02 1.32149643E-04 9.59217390E-05 4.83153446E-09
 5  2-1.92146347E-10 9.99508600E-01-8.34370728E-12-8.85971913E-13-1.56760853E-03
 5  3-8.85708838E-12 9.15043700E-13-1.96707652E-03-4.10221098E-06 5.15105324E-06
 5  4-1.04884226E-06-3.26797052E-07-1.25658039E-13-2.96794571E-15-2.35594043E-02
 5  5-3.63765249E-05 4.83686567E-04-1.53446716E-11-6.33387828E-13 4.13872042E-06
 5  6-1.03136392E-11-4.77874624E-13-2.14655910E-04-1.58188997E-05-1.56674880E-05
 5  7 3.14863877E-05-5.34740068E-09-2.71940475E-14 1.67567270E-15
 6  1 1.23222809E-10-1.36647251E-10 3.69898589E-13 2.87414684E-12 9.99501815E-01
 6  2 3.07355995E-02-4.81130148E-09-1.73601114E-03-5.26854962E-05 7.48585316E-12
 6  3-1.82209566E-03-5.63626358E-05 9.50029310E-12 5.53062101E-14-4.35116736E-14
 6  4-1.17945365E-14 4.15031640E-15-2.30825353E-05-7.08836744E-07 7.48609989E-10
 6  5-1.27186231E-11-1.81169341E-11-2.68079079E-03-8.23327457E-05-1.59414190E-13
 6  6-1.79035185E-03-5.49698655E-05 1.09784001E-12 1.42992073E-13 1.40634050E-13
 6  7-2.83626123E-13 1.13818004E-16-5.52615805E-06-1.70399112E-07
 7  1 3.79549447E-12 1.38172963E-11 3.73444862E-14-1.75081151E-13 2.86182981E-03
 7  2 2.72339355E-05 3.26035662E-12-2.55187613E-03-1.74515753E-05-1.64662773E-12
 7  3 8.60266563E-03-4.60484114E-05-1.96702717E-12 1.78657100E-14 3.02905150E-14
 7  4-4.81562250E-14-5.70947809E-16 3.34885459E-03-2.24552933E-06-2.37195945E-11
 7  5 1.33053191E-12 1.63222723E-12 6.86164358E-01 9.00433669E-06 2.54940035E-12
 7  6 4.64723888E-01-8.51898766E-06 1.59865593E-12 5.55639233E-16 8.74078687E-16
 7  7-1.42971792E-15-7.42154273E-17-2.89974573E-05 6.96898539E-07
 8  1-1.05591790E-12 1.61751175E-12 2.99106280E-15-2.02310021E-14 2.72339777E-05
 8  2 1.97147689E-03 1.35553402E-12-1.74515809E-05-1.98129038E-03-1.67394284E-13
 8  3-4.60484097E-05 1.01082350E-02-2.01274440E-13 1.88935858E-15 2.96500098E-15
 8  4-4.85435956E-15-4.86765608E-16-2.24552927E-06 3.42227299E-03-4.22812945E-12
 8  5 2.35786340E-13 2.82558050E-13 9.00434812E-06 6.85869957E-01 2.78608270E-13
 8  6-8.51903126E-06 4.65002420E-01 1.75373019E-13-9.03195936E-17-1.21984060E-16
 8  7 2.12303654E-16-1.42660319E-16 6.96898553E-07-5.17828102E-05
 9  1-2.76803460E-04-2.68454535E-03-8.57025517E-03 3.82224531E-05 2.69052978E-13
 9  2 1.94760662E-13-2.16400050E-05 3.25517146E-15 9.62391821E-16-1.84780972E-02
 9  3-1.55717718E-14-4.25491962E-15-1.43447034E-02-9.40597992E-04-8.10091748E-04
 9  4 1.75068974E-03-4.60908225E-06-6.00281652E-15-1.01152791E-15 3.85857587E-02
 9  5 5.12453431E-01 5.69253222E-01-1.24063375E-12-2.14140539E-13 2.79948508E-02
 9  6-8.40014636E-13-1.45242207E-13 1.88745233E-02 6.33231110E-04 6.81571430E-04
 9  7-1.31480254E-03-1.70723256E-06 2.54849600E-18 5.83236347E-17
10  1 2.16461463E-16 1.70953413E-15 3.67533796E-15-3.96527488E-15 2.17380229E-03
10  2 6.64244787E-05 1.76783217E-16 5.15216753E-01 1.57433837E-02-1.94184453E-15
10  3 5.93208434E-01 1.81265611E-02-3.11429083E-15 3.48374453E-17-1.04647210E-16
10  4 6.98097647E-17 4.34587541E-17-7.12906316E-04-2.17841472E-05 1.30609642E-16
10  5-1.01058439E-15 1.57283692E-15-1.20084450E-02-3.66939849E-04-1.55062707E-16
10  6-1.04794386E-02-3.20218278E-04-3.68882928E-16 6.35414684E-18 1.27698928E-18
10  7-7.63113612E-18 1.09516142E-17-4.81751081E-04-1.47207792E-05
11  1 1.30532606E-04 9.31290853E-03 5.49312177E-01 5.34187103E-01-2.44300898E-14
11  2-5.68347444E-15 1.78133000E-04 4.70053746E-16-2.50447530E-16-1.52119828E-02
11  3-1.48969551E-15-3.74866917E-16-1.87566704E-02-3.41787970E-04 1.78351188E-05
11  4 3.23952851E-04-1.27007927E-05-4.88139710E-16-1.99550071E-17-1.63566873E-04
11  5-2.30336289E-03-5.66768599E-03-1.23194902E-13-1.31265106E-14 7.15093903E-03
11  6-8.34701668E-14-8.55053698E-15 4.31060266E-03-2.35214877E-04-2.27993186E-04
11  7 4.63208063E-04-2.55048088E-07 2.75380388E-17 3.03790422E-17
12  1-5.31550200E-03-4.22114212E-02-7.77058011E-02 7.52424741E-02 5.16112533E-15
12  2 2.25451542E-16-3.82872701E-03 1.36911656E-14 9.04621539E-16-4.05157428E-02
12  3-1.07794701E-14 4.03027898E-15-6.01531059E-03 5.05416023E-01-9.94178628E-01
12  4 4.88762605E-01 5.29611067E-02-2.25025474E-14 2.88899229E-14-3.56012151E-03
12  5-1.22900802E-02 3.92026790E-03 1.64810128E-13-1.72447823E-14 3.34266312E-02
12  6-1.89423222E-13 2.25337183E-14-5.08771706E-02 1.58080906E-04 2.34155194E-04
12  7-3.92236100E-04-2.68671169E-06-3.99955108E-15 2.87899233E-16
13  1 8.69239323E-04 6.61087831E-03 5.43248626E-03-1.93239916E-02-2.64872867E-14
13  2-1.06892968E-14 1.93908614E-04 1.06059767E-14-3.67541386E-15-3.27894209E-01
13  3-4.32668342E-14-1.09008399E-14-3.93468923E-01 4.25233840E-03 6.15459530E-03
13  4-1.04069337E-02-6.71819082E-05-1.65231232E-14-2.25153706E-15-2.70154390E-03
13  5-1.56366697E-02 4.62388378E-03-3.37481323E-12-3.51615050E-13 5.05416651E-01
13  6-2.28545661E-12-2.38494676E-13 3.17952980E-01 6.26765035E-04 6.07833125E-04
13  7-1.23459816E-03 6.68617273E-07 5.87740933E-17-8.80642790E-17
14  1 3.41472336E-04 2.67874250E-03-1.22841977E-02-2.18684759E-02 4.78470434E-14
14  2 7.22205877E-15-1.16537233E-03 2.98892059E-13 3.38965488E-15-3.88093358E-01
14  3-1.77533503E-13-7.56383395E-14-4.53481970E-01-1.96993966E-02 4.24116341E-02
14  4-2.27122375E-02-2.19357206E-03-4.18234766E-13-4.27032225E-14 1.48560358E-02
14  5 5.38156626E-02 3.67178527E-03 4.43561537E-12 4.90343916E-13-5.08001825E-01
14  6-5.03770488E-12-5.29040053E-13-2.89644524E-01-2.17558619E-02-2.17341475E-02
14  7 4.34900094E-02-7.66889341E-07-1.14706061E-13-1.42478706E-14
15  1-1.55929937E-03-1.24138853E-02-2.78791464E-02 1.70240518E-02 3.17954764E-14
15  2-8.08845516E-15-2.03649117E-03 1.71809902E-13 6.46932201E-15-4.28872630E-02
15  3-1.05512742E-13 7.25783627E-14-2.90187084E-02-2.23940775E-02 1.23823336E-02
15  4 1.00117439E-02-1.22819671E-03-2.56459840E-13 2.63981891E-14-2.89256017E-01
15  5-7.15215546E-01 7.04766380E-01 2.76144046E-12-3.55588123E-13-9.53056604E-03
15  6-3.07356577E-12 3.69358881E-13-3.39620988E-02 4.42828222E-01 4.42367571E-01
15  7-8.85195793E-01 1.62687969E-05-3.74992745E-14 5.83530811E-14
16  1-6.27698075E-15-2.97250265E-14-4.34562201E-14 2.63323566E-14 1.62445077E-04
16  2-1.52222814E-02-3.23406515E-14-1.86817724E-03-6.41662291E-04-3.64599842E-13
16  3-4.02105583E-03 1.68169561E-01-1.27250421E-13 9.11355380E-14-2.36231326E-13
16  4 1.45095788E-13 1.52526621E-14 2.90683399E-04 7.68233499E-02-5.16194603E-13
16  5-1.28416247E-12 1.31289968E-12-3.80571311E-04-9.01706362E-01-2.48218724E-13
16  6 6.11690476E-04 1.02057322E+00-1.56541182E-13 8.87789405E-13 8.85707005E-13
16  7-1.77349641E-12-2.68860697E-15 3.99984545E-05 2.20465896E-02
17  1 3.13934045E-14 9.85763949E-14 1.12273232E-13-2.82264495E-13-9.91112412E-03
17  2 1.62445915E-04-4.78078588E-14-6.17226815E-02-1.86818570E-03-2.23826270E-12
17  3 3.66998361E-02-4.02107513E-03-1.95025231E-12-2.45589113E-14 3.53783536E-14
17  4-1.08194423E-14 5.65074243E-14 8.63277494E-02 2.90684409E-04 6.46472309E-13
17  5 1.57515022E-12-1.44252632E-12-9.14153459E-01-3.80568070E-04-2.61433330E-12
17  6 1.04057739E+00 6.11687697E-04-1.38222258E-12-5.19330565E-13-5.19525395E-13
17  7 1.03885596E-12-6.44344204E-15 2.33544617E-02 3.99985592E-05
18  1 1.31889299E-01 1.04945794E+00 1.87962936E+00-1.91084305E+00 5.55431406E-15
18  2-3.92552010E-15 2.12479187E-02 3.84998010E-14 1.15644533E-15 9.39080837E-02
18  3-2.54566760E-14 3.13371707E-14-1.25969257E-01 2.90937975E-02-3.04187070E-02
18  4 1.32490945E-03 2.10180004E-03-5.32766207E-14 1.40201491E-14-8.42799530E-02
18  5-1.86677174E-01 2.55974369E-01 6.02003637E-13-1.51692126E-13 9.01942858E-02
18  6-6.66469046E-13 1.67818050E-13-2.01758936E-01-1.32760353E-02-1.32623144E-02
18  7 2.65383497E-02-4.84582652E-07-1.52058435E-14 2.83882119E-15
19  1-1.04420406E-02-8.31176534E-02-1.65862143E-01 1.34485083E-01 3.25967701E-14
19  2-2.33693154E-14 2.11008751E-01 1.85278077E-13-4.83421732E-15 1.04680399E+00
19  3-1.50414756E-13 2.18206405E-13-1.10319203E+00 2.96506989E-02 2.15115959E-02
19  4-5.11622948E-02 2.87448282E-04-1.77080743E-13 9.27969111E-14-3.07553176E-01
19  5-7.30194330E-01 8.31959024E-01 1.57396131E-12-1.19403889E-12 2.22547511E-01
19  6-1.75483228E-12 1.33351949E-12-3.83045585E-01-1.04721575E-01-1.04621759E-01
19  7 2.09343334E-01-3.52522766E-06-5.39109938E-14 1.62019663E-14
20  1-2.58737429E-17-4.12717401E-17 4.84787736E-16-4.27956095E-16-7.05337355E-03
20  2 2.30828155E-01 1.43131636E-15-3.61232976E-02 1.18216824E+00 5.00926428E-15
20  3 3.61835668E-02-1.18414060E+00-4.38258104E-15 4.74626053E-16-1.33430916E-15
20  4 8.59683103E-16-4.92514328E-17 6.83571176E-05-2.23705372E-03-2.34788850E-16
20  5 4.65545130E-16-3.22465099E-17 2.55584575E-03-8.36423663E-02 1.79496656E-15
20  6-4.06729809E-03 1.33106033E-01-2.75301458E-15 5.66198272E-15 5.66872108E-15
20  7-1.13307038E-14-1.06377509E-16 2.37079252E-04-7.75863832E-03
21  1-3.97498723E-16-2.87163015E-15-9.97685729E-15 7.76753726E-15-2.33682235E-01
21  2-7.14058513E-03 2.16633040E-14-1.20252920E+00-3.67454636E-02 1.08677764E-13
21  3 1.16671698E+00 3.56511574E-02-1.11124946E-13 9.19861903E-16-1.18251900E-16
21  4-8.01610003E-16 7.35553420E-16 2.48729334E-03 7.60041747E-05-1.30333728E-14
21  5-1.44430406E-14 2.80791603E-14 5.59385014E-02 1.70929768E-03 3.30865053E-14
21  6-1.00305506E-01-3.06501146E-03-5.07307848E-14 3.80037533E-14 3.79619302E-14
21  7-7.59656835E-14-6.16313536E-17 7.86955237E-03 2.40468583E-04
22  1 3.17490652E-03 2.52021097E-02 4.72364502E-02-4.40509050E-02-9.06927700E-15
22  2 2.84952168E-14 9.52928999E-02-7.10550650E-14-9.00692034E-15 4.98666868E-01
22  3 2.09156190E-14-2.81470790E-13-4.66989034E-01-5.89765615E-03-2.02130461E-03
22  4 7.91896076E-03-1.36900906E-04 2.49270420E-13-1.25021451E-13 4.64187082E-01
22  5 1.16302860E+00-1.09292101E+00-2.45777634E-12 1.49998885E-12 2.40212655E-01
22  6 2.75284555E-12-1.67368343E-12-3.36843928E-01 2.02307392E-01 2.02094065E-01
22  7-4.04401457E-01 7.53407417E-06 8.08281367E-14-1.27694325E-14
23  1 4.32583172E-03 3.44686048E-02 8.35961793E-02-4.09908754E-02-2.87607186E-15
23  2 3.26765869E-15 6.56286368E-02-1.64718094E-14-3.50622209E-16 3.93217070E-01
23  3 1.01669980E-14-3.16296306E-14-2.57359836E-01-4.71907542E-02-8.20159348E-02
23  4 1.29206689E-01 1.22991910E-03 2.69710150E-14-1.30725990E-14 4.88422626E-02
23  5 1.27847351E-01-9.93600055E-02-2.85326879E-13 1.69073388E-13-8.32596996E-01
23  6 3.19950181E-13-1.90194909E-13 9.60481862E-01 3.72303727E-02 3.71876540E-02
23  7-7.44180267E-02 1.50869189E-06 1.01056522E-14 5.66500948E-16
24  1-6.36187888E-16-2.78655440E-15-1.70397441E-14 1.46902655E-14 1.54737895E-03
24  2 4.72826970E-05 4.23086391E-15 9.82626324E-03 3.00258781E-04 1.58627527E-14
24  3-5.39690394E-03-1.64909731E-04-2.41341468E-14-1.19262158E-13 2.30098453E-14
24  4 9.62523129E-14 5.04730714E-13 9.50869753E-01 2.90555313E-02-9.02377655E-14
24  5-1.95105863E-13 2.00389597E-13 8.54274212E-02 2.61037462E-03 1.46010852E-14
24  6-1.07083229E-01-3.27210494E-03-1.26022645E-14 8.20862403E-14 7.41999367E-14
24  7-1.56286177E-13-6.04136186E-14 2.95584075E-01 9.03210152E-03
25  1-2.74732866E-16-2.29769818E-15-2.37762041E-15 2.22991441E-15 6.56967552E-05
25  2-2.14998353E-03-2.50868299E-15 6.39492431E-04-2.09279583E-02-1.07868536E-14
25  3 1.65384286E-05-5.41248339E-04 6.78535268E-15-2.78337764E-14-4.10529177E-14
25  4 6.88866941E-14-1.75509380E-14 2.88553288E-02-9.44318019E-01-3.19912984E-14
25  5-8.38774870E-14 8.27291712E-14 2.44012683E-03-7.98550375E-02 4.85684961E-15
25  6-3.08655712E-03 1.01010024E-01-3.35187274E-15 5.81471378E-14 6.88863502E-14
25  7-1.27033488E-13 2.65418368E-14 9.68609848E-03-3.16986750E-01
26  1-1.33779800E-15 3.20734763E-14 9.86307351E-13 1.03661721E-12-7.63568946E-16
26  2-1.18774849E-16 6.44274751E-16-2.66326902E-15-2.51774885E-16 1.06553017E-14
26  3 3.86943861E-16-1.66169899E-16 6.15152093E-15-3.73900641E-02 3.73900641E-02
26  4 3.46857036E-13 7.05800209E-01-2.16028117E-13-3.73555905E-14-1.55466452E-14
26  5-5.21109540E-14 9.42618632E-15 1.02063540E-14 8.64402510E-16 1.75024941E-13
26  6-9.39908877E-15-3.22102208E-16-4.21350334E-14 3.73900641E-02-3.73900641E-02
26  7-2.26534262E-13-7.05800209E-01-6.67567121E-13-2.90268479E-14
27  1-3.23843633E-07-2.43057034E-06-1.34140226E-05-4.13245509E-06-1.11542347E-16
27  2-3.25972309E-16-7.39074781E-06-1.04771947E-15-2.37213121E-15-8.44613758E-05
27  3 2.78254640E-16-6.13975147E-17-2.08856757E-05-6.96612532E-03-5.04001947E-05
27  4 7.01652551E-03-2.44242308E-04 7.90728924E-14 1.64243989E-13-3.63101347E-05
27  5-1.18369566E-04 5.21442307E-05 1.43178017E-15 2.47225494E-15 5.50609934E-04
27  6-2.27908137E-15-4.59497615E-15-3.67234112E-04 8.64089817E-01-8.64672594E-01
27  7 5.82776702E-04 6.10546126E-02-2.61558770E-13-5.04366250E-13
28  1 2.36339997E-15-3.21559606E-14-9.86361711E-13-1.03641731E-12 8.12795197E-16
28  2 1.09305511E-15-5.28633572E-16 2.93032297E-15 9.43256157E-17-1.02744850E-14
28  3-4.86717016E-16 2.68150545E-18-5.11060824E-15 3.73887214E-02-3.73887214E-02
28  4-4.33547901E-13-7.05774862E-01 1.06645348E-13-2.61442837E-14 1.60578438E-14
28  5 5.65609897E-14-7.17010231E-15-9.60013654E-15-9.98129374E-16-1.82022435E-13
28  6 9.73569712E-15 8.94657753E-16 4.60842971E-14 3.73887214E-02-3.73887214E-02
28  7 2.45371706E-13-7.05774862E-01 7.33697397E-13 9.04579415E-14
29  1 3.37065441E-16-2.09649499E-16-1.56498728E-15 1.28328570E-15-4.95361886E-04
29  2-1.51366968E-05 4.38338378E-16-3.85144928E-03-1.17687974E-04 1.22996604E-15
29  3 9.52372705E-04 2.91017058E-05-2.50432904E-15-1.41629651E-14-4.87860084E-14
29  4 6.29489735E-14-8.81231875E-13 2.95940827E-01 9.04300601E-03-9.36283688E-15
29  5-1.85424357E-14 1.82124711E-14 4.41560757E-03 1.34925647E-04 5.56864972E-15
29  6-8.19228491E-03-2.50328683E-04-4.08082361E-15-2.22219086E-13 2.71548839E-13
29  7-4.93297530E-14-8.68032257E-14-9.54526613E-01-2.91672831E-02
30  1-1.05089060E-15 3.55866908E-16 6.71503885E-16-2.75615280E-16 1.38690599E-05
30  2-4.53878413E-04 3.93708916E-16 1.38583986E-04-4.53529311E-03 2.68857914E-15
30  3 5.02919546E-06-1.64583013E-04-6.29750962E-16 7.54247267E-14 7.95061668E-15
30  4-8.33753434E-14-4.87289080E-14-9.69824259E-03 3.17384064E-01 3.76280851E-15
30  5 9.58368775E-15-8.45450248E-15-1.39978535E-04 4.58088575E-03-6.53750954E-15
30  6 2.63122525E-04-8.61088227E-03 4.33861213E-15-4.25003307E-13 4.70103885E-13
30  7-4.51005776E-14-8.50572435E-14 2.89556323E-02-9.47600139E-01
31  1-5.37045418E-05-4.26739768E-04-2.06081328E-03-5.08475497E-04-3.20638930E-16
31  2-3.24298391E-16-8.35392069E-04 1.26694591E-15-8.62594858E-16-1.01340971E-02
31  3-8.82501591E-16 1.08587841E-15-3.17861538E-03-8.59146418E-01-4.70039397E-03
31  4 8.63846812E-01-3.01764260E-02-1.28755397E-13 7.60548197E-14-4.45507847E-03
31  5-1.64369337E-02 4.49531036E-03 1.81904299E-14-8.97411603E-15 6.82212343E-02
31  6-1.86091928E-14 9.73030504E-15-4.45906465E-02-2.44193994E-02-1.04008933E-02
31  7 3.48202927E-02-4.95090854E-04 3.88955827E-14-6.51880100E-14
32  1 1.71108099E-16-5.86894920E-15-6.39082021E-15 6.09017128E-15 3.37466903E-04
32  2-1.10439046E-02-5.36410788E-15 1.72171024E-02-5.63445489E-01-1.53047693E-14
32  3 1.62833367E-02-5.32887257E-01 2.24209196E-14 1.41728695E-14-3.40065089E-14
32  4 1.98336394E-14 2.15353720E-15-8.74167748E-04 2.86078454E-02-7.86849854E-14
32  5-2.05050450E-13 2.03417426E-13 4.34455071E-03-1.42178386E-01 2.87734640E-15
32  6-5.69270093E-03 1.86297705E-01-1.48664480E-15 1.37310896E-13 1.36771793E-13
32  7-2.74082689E-13-7.25166124E-16-3.42691505E-04 1.12148684E-02
 $END
