 $CONTRL SCFTYP=GVB RUNTYP=ENERGY ICHARG=0 MULT=2 NOSYM=1 ICUT=11
  MAXIT=500 ISPHER=1 $END
 $SYSTEM MWORDS=312 $END
 $SCF NCO=5 NPAIR=2 NSETO=1 NO(1)=1 DIRSCF=.T. $END
 $GUESS GUESS=MOREAD NORB=28 $END
 $DATA
GAMESS inp file produced by MOKIT,nif=28,nbf=28
C1   1
C     6.         0.00000000         0.00000000         0.00000000
   S  8
   1   6.66500000E+03   6.91583963E-04   0.00000000E+00
   2   1.00000000E+03   5.32579615E-03   0.00000000E+00
   3   2.28000000E+02   2.70607210E-02   0.00000000E+00
   4   6.47100000E+01   1.01656846E-01   0.00000000E+00
   5   2.10600000E+01   2.74574824E-01   0.00000000E+00
   6   7.49500000E+00   4.48294319E-01   0.00000000E+00
   7   2.79700000E+00   2.84902611E-01   0.00000000E+00
   8   5.21500000E-01   1.51948592E-02   0.00000000E+00
   S  8
   1   6.66500000E+03  -2.93269653E-04   0.00000000E+00
   2   1.00000000E+03  -2.31803547E-03   0.00000000E+00
   3   2.28000000E+02  -1.14997860E-02   0.00000000E+00
   4   6.47100000E+01  -4.68267270E-02   0.00000000E+00
   5   2.10600000E+01  -1.28466169E-01   0.00000000E+00
   6   7.49500000E+00  -3.01266272E-01   0.00000000E+00
   7   2.79700000E+00  -2.55630702E-01   0.00000000E+00
   8   5.21500000E-01   1.09379336E+00   0.00000000E+00
   S  1
   1   1.59600000E-01   1.00000000E+00   0.00000000E+00
   P  3
   1   9.43900000E+00   5.69792516E-02   0.00000000E+00
   2   2.00200000E+00   3.13207212E-01   0.00000000E+00
   3   5.45600000E-01   7.60376742E-01   0.00000000E+00
   P  1
   1   1.51700000E-01   1.00000000E+00   0.00000000E+00
   D  1
   1   5.50000000E-01   1.00000000E+00   0.00000000E+00

F     9.         0.00000000         0.00000000         2.80000000
   S  8
   1   1.47100000E+04   7.20673709E-04   0.00000000E+00
   2   2.20700000E+03   5.55048697E-03   0.00000000E+00
   3   5.02800000E+02   2.82542077E-02   0.00000000E+00
   4   1.42600000E+02   1.06395828E-01   0.00000000E+00
   5   4.64700000E+01   2.86684201E-01   0.00000000E+00
   6   1.67000000E+01   4.48437966E-01   0.00000000E+00
   7   6.35600000E+00   2.64641181E-01   0.00000000E+00
   8   1.31600000E+00   1.53260610E-02   0.00000000E+00
   S  8
   1   1.47100000E+04  -3.21193890E-04   0.00000000E+00
   2   2.20700000E+03  -2.54619157E-03   0.00000000E+00
   3   5.02800000E+02  -1.26433595E-02   0.00000000E+00
   4   1.42600000E+02  -5.19574917E-02   0.00000000E+00
   5   4.64700000E+01  -1.43447138E-01   0.00000000E+00
   6   1.67000000E+01  -3.32437623E-01   0.00000000E+00
   7   6.35600000E+00  -2.18659068E-01   0.00000000E+00
   8   1.31600000E+00   1.09559041E+00   0.00000000E+00
   S  1
   1   3.89700000E-01   1.00000000E+00   0.00000000E+00
   P  3
   1   2.26700000E+01   6.48340215E-02   0.00000000E+00
   2   4.97700000E+00   3.40535360E-01   0.00000000E+00
   3   1.34700000E+00   7.34646407E-01   0.00000000E+00
   P  1
   1   3.47100000E-01   1.00000000E+00   0.00000000E+00
   D  1
   1   1.64000000E+00   1.00000000E+00   0.00000000E+00

 $END
 $VEC
 1  1-1.69778336E-02 3.31247645E-04 4.33419306E-04-2.92252240E-16 3.17167346E-17
 1  2-9.32374215E-05-2.66193557E-16-1.48003892E-15 1.31111723E-05 1.87343597E-05
 1  3 2.06815945E-05-3.94159542E-05-2.84418198E-06-4.33123806E-17-3.39636659E-16
 1  4 9.99490605E-01-2.01153804E-02-2.42782115E-02-2.75707762E-14-1.11002570E-13
 1  5-9.95420314E-05-1.92606971E-14-7.69957121E-14-1.55298574E-05 1.05378971E-04
 1  6 1.06256806E-04-2.11635777E-04-1.28218793E-06 7.12248894E-16 1.02449065E-15
 2  1-1.00022857E+00 1.50869103E-02 2.22400968E-02-2.95744887E-16 2.44068181E-16
 2  2-4.30160525E-05 1.42528201E-15-8.27099037E-16 1.87570471E-04 2.03995833E-05
 2  3-2.41048977E-05 3.70531443E-06 6.50044104E-05 3.24861674E-16-2.24515115E-16
 2  4-1.69115954E-02 3.13111970E-04-8.11100048E-05 9.52530551E-14-7.26309854E-14
 2  5-3.53411866E-04 6.61182962E-14-5.03366351E-14 4.51418095E-05-1.38205843E-06
 2  6-1.43869896E-06 2.82075739E-06 8.27306265E-08-5.63592754E-16 3.06573886E-16
 3  1-1.09059310E-13 6.03518240E-15 6.97175780E-15 3.62395715E-04-2.84657146E-04
 3  2-1.80544277E-14 6.50472583E-04 7.91822101E-03-1.27236275E-14 5.94428338E-17
 3  3 1.26682555E-16-1.86125389E-16 2.12048195E-16 1.67085768E-05 1.83001703E-03
 3  4 1.61440917E-13-1.36246568E-15-1.45946471E-15-1.30540806E-04 6.86655501E-01
 3  5 2.01286584E-14 1.21277248E-04 4.64193678E-01 1.23855790E-14 1.16774303E-16
 3  6-1.75379145E-17-9.92363890E-17-8.17556126E-17-1.17728677E-05 4.91981685E-05
 4  1 1.38988149E-13-6.99250186E-15-8.67563042E-15 1.83542358E-06 3.62395729E-04
 4  2-6.43112854E-15 8.43245326E-03 6.50472588E-04-4.43099264E-15 1.40324450E-16
 4  3-1.29929615E-16-1.03948349E-17 7.03553787E-18 1.84322603E-03 1.67085787E-05
 4  4 4.30337817E-14-2.66676659E-16-1.76020682E-16 6.86552302E-01-1.30540894E-04
 4  5 3.23170652E-15 4.64289554E-01 1.21277584E-04 1.65277471E-15 9.74801492E-17
 4  6-7.12386282E-17-2.62415210E-17-3.97191274E-17 3.98911071E-05-1.17728677E-05
 5  1-1.35904627E-03-6.57608708E-03-1.35855424E-03 3.87909405E-16 2.54200727E-16
 5  2-1.59348607E-02 2.29888210E-16 4.09703353E-16-6.72212783E-03-6.37420772E-04
 5  3-6.60444718E-04 1.29786549E-03 3.36293749E-05-3.45837918E-17 2.70806699E-17
 5  4 3.87740477E-02 5.13041139E-01 5.68539665E-01-1.02448454E-15-3.49354678E-15
 5  5 1.91351884E-02-4.34628828E-16-1.84640341E-15 1.29985953E-02 6.72007176E-04
 5  6 6.55369114E-04-1.32737629E-03 2.43019888E-05-3.37642965E-17 1.09553230E-17
 6  1 1.96683226E-17 1.77137383E-16-3.56601589E-17 3.79981656E-01-5.58787076E-01
 6  2 2.32175280E-15 2.59320966E-01-3.81347895E-01 1.67984598E-15-2.45509087E-16
 6  3 2.68646430E-16-2.31373433E-17 1.28560233E-16 1.58452008E-04-2.33013707E-04
 6  4-5.48071322E-17-7.72474175E-17-8.89334654E-17-6.35633665E-03 9.34739540E-03
 6  5 6.11912897E-17-4.57782584E-03 6.73198264E-03 5.44160918E-17-1.85511977E-16
 6  6 1.70089539E-16 1.54224384E-17 8.37523865E-17-2.58627362E-04 3.80327905E-04
 7  1 3.09402218E-02 4.95817137E-01 5.81961341E-01 1.47749475E-16 2.92709297E-17
 7  2-1.37648965E-02 8.86978903E-17 4.28561192E-17-9.20095255E-03-7.74929896E-04
 7  3-1.95290431E-04 9.70220327E-04-8.46636464E-04-5.22838589E-17 3.57994007E-17
 7  4-4.85882469E-04-3.64601219E-03-4.16546706E-03 6.67701898E-15-6.11224767E-15
 7  5 8.80664656E-03 4.29571700E-15-3.60820404E-15 5.49030998E-03-2.81735118E-04
 7  6-2.84330746E-04 5.66065864E-04 3.79124258E-06 5.50453555E-17 1.07378200E-17
 8  1 3.74858338E-01 9.34224446E-01-9.16186319E-01-1.16571137E-15-1.73324341E-15
 8  2-3.93772463E-02-9.86797731E-16-2.86053181E-16 7.39067299E-03-4.25897884E-01
 8  3 2.29978483E-02 4.02900036E-01-6.55668822E-01 5.59958674E-16-2.58257491E-15
 8  4 2.08042557E-03 1.24821605E-02 8.93520421E-03-1.45236281E-14 9.85068243E-15
 8  5-6.33038306E-03 1.59683040E-14-1.15914135E-14-5.37124036E-02 3.90005892E-03
 8  6 3.84724048E-03-7.74729940E-03 7.71479797E-05-2.03870038E-16-1.22017893E-16
 9  1 1.27766867E-03 3.40897351E-03-8.34094783E-03 3.01158204E-15-2.91833297E-16
 9  2-4.46689221E-01 2.18380038E-15-4.98057604E-16-3.15910336E-01 2.24954826E-03
 9  3 1.82221760E-03-4.07176586E-03 6.24170317E-04 1.86664786E-16-7.14831926E-17
 9  4-1.51008975E-03-8.37133703E-03 1.67684633E-03-7.54710225E-15-2.71051177E-14
 9  5 4.99638735E-01-4.55178890E-15-1.90981831E-14 3.06410019E-01 5.07998831E-04
 9  6 5.14358859E-04-1.02235769E-03-9.28962187E-06 6.51404651E-17 4.21916011E-18
10  1-1.27961023E-02-4.43518891E-02 1.65133713E-02 1.71224158E-15 1.51723245E-17
10  2-5.01872313E-01-1.44463960E-15-2.73630317E-15-3.43115428E-01 1.38787857E-02
10  3-1.03421402E-03-1.28445717E-02 2.17823166E-02-3.54661934E-16-1.53564513E-15
10  4 1.07134594E-02 3.92326673E-02-1.03232754E-03 1.09242668E-14 3.60916560E-14
10  5-5.12522228E-01-1.72615010E-14-4.09661950E-14-3.01973099E-01-1.51254162E-02
10  6-1.51311330E-02 3.02565492E-02 8.35000356E-06 3.18942764E-16-3.57617066E-16
11  1-2.13031120E-04-5.25563320E-03-5.13578010E-03-2.02885861E-16-1.94110082E-16
11  2-1.01263535E-02-1.60728525E-15-7.84600575E-16-4.27277294E-02-3.89578780E-03
11  3-6.41060460E-03 1.03063924E-02 3.67320705E-03-4.34431158E-15 2.19743616E-15
11  4-2.88923659E-01-7.13766980E-01 7.04918919E-01 4.95075688E-15 5.29829167E-15
11  5-7.44353428E-03-5.98509103E-15-6.21887718E-15-2.78011868E-02 4.43780244E-01
11  6 4.43935110E-01-8.87715354E-01-2.26201068E-04-1.70630096E-14-7.20034708E-15
12  1-5.51163213E-15 9.78091343E-15-1.19222918E-14 1.80580988E-02 3.24901217E-02
12  2-3.05771370E-15 8.90770162E-02 5.39217418E-02-4.95384330E-15 9.44611588E-15
12  3-7.89937166E-15-1.54674422E-15 6.46613926E-17 3.66176198E-02-2.52366322E-03
12  4 5.09947194E-15 1.25985909E-14-1.20875022E-14-9.10079581E-01 5.26554051E-03
12  5-5.42643113E-15 1.03441665E+00-8.55694592E-03-7.07951136E-15 2.10256312E-15
12  6-2.52551390E-14 2.31525759E-14-6.22285026E-15 1.43444217E-02-5.12778183E-04
13  1 1.69110754E-14-1.42188278E-14 9.24304719E-15 3.24900400E-02-7.62700471E-03
13  2-2.34764199E-14 5.39216059E-02 4.64489749E-02-1.27440643E-14 3.73424872E-16
13  3-3.17478434E-16-5.59464377E-17 1.55430921E-15-2.52365850E-03 3.86126124E-02
13  4-2.41944248E-16-2.86568865E-16 1.00625865E-15 5.26553500E-03-9.14240043E-01
13  5-1.78983700E-14-8.55693389E-03 1.04117880E+00-1.39026997E-14 9.71190495E-15
13  6-1.60788609E-14 6.36695594E-15-6.83164580E-15-5.12777305E-04 1.47497634E-02
14  1-1.83396369E-01-4.36394217E-01 4.72881469E-01 2.02784626E-15-9.30340260E-17
14  2-5.31959795E-01-1.10610985E-16 1.78449755E-15 7.09776218E-01-8.94190085E-02
14  3-2.24670675E-02 1.11886076E-01-9.77917526E-02-9.34582304E-16 8.70737836E-16
14  4 4.46528714E-01 1.07933727E+00-1.14204502E+00-2.12320251E-14-9.06089455E-15
14  5-2.93933804E-01 2.46065989E-14 1.05441123E-14 4.74169800E-01 1.75401436E-01
14  6 1.75448916E-01-3.50850352E-01-6.93506929E-05-6.29712599E-15-2.62825252E-15
15  1 1.24065308E-01 3.00414183E-01-3.14102249E-01 2.70078896E-15 3.25754363E-15
15  2 4.85161925E-01-2.28325722E-16-2.03405852E-15-5.89752646E-01 7.78484861E-02
15  3 1.18313011E-02-8.96797872E-02 9.64264232E-02-8.16699541E-16 1.17110402E-15
15  4 3.39387977E-01 8.60807014E-01-7.82155701E-01-1.48241443E-14-4.87810313E-15
15  5 4.87245106E-01 1.68328309E-14 5.55064278E-15-6.76780923E-01 1.43825488E-01
15  6 1.43887878E-01-2.87713366E-01-9.11299136E-05-5.77335026E-15-2.62330038E-15
16  1 2.32766128E-16 6.04552364E-16-6.73227575E-16 8.51049104E-01 5.78723210E-01
16  2-2.16849172E-16-8.56302298E-01-5.82295440E-01 1.06653514E-15-3.09803016E-16
16  3 1.50741309E-16 1.59061707E-16-4.25602235E-17-1.97747892E-03-1.34471225E-03
16  4-1.15358296E-15-3.23694537E-15 3.04572957E-15-4.68113972E-02-3.18322044E-02
16  5-1.57311793E-15 8.14247122E-02 5.53696452E-02 2.27096223E-15-1.90249948E-15
16  6-8.06009008E-16 2.70850849E-15 2.91341244E-16-9.04766985E-03-6.15252126E-03
17  1-6.03145922E-14-1.47980698E-13 1.43621247E-13 5.43901053E-01-7.99840917E-01
17  2 4.76037247E-14-6.11683191E-01 8.99518867E-01-5.50830350E-14-3.55510543E-14
17  3 2.54015826E-15 3.30108960E-14-5.52795011E-14-1.45241209E-03 2.13586938E-03
17  4-2.35447540E-15-6.26381227E-15 7.14300889E-15-1.93041557E-02 2.83878415E-02
17  5 8.78796009E-15 4.21627237E-02-6.20027923E-02-9.96984744E-15-2.01268729E-15
17  6-2.30553854E-15 4.31822583E-15-1.46088035E-17-6.61500211E-03 9.72778147E-03
18  1 4.74042289E-01 1.18596420E+00-1.15213080E+00 6.92816061E-14-1.00821395E-13
18  2-3.72552039E-01-7.56533962E-14 1.14351383E-13 4.29554970E-01 2.82930808E-01
18  3-1.87495914E-02-2.64181217E-01 4.40642266E-01-9.83959529E-16 1.73490192E-15
18  4 1.95670337E-02 4.80750042E-02-5.42204165E-02-6.56510910E-15 5.00932206E-15
18  5-5.55760469E-02 9.57182239E-15-9.95928802E-15 6.07638584E-02 1.40685982E-02
18  6 1.41124098E-02-2.81810080E-02-6.39924035E-05-1.52371679E-15 8.92059107E-16
19  1 7.97289653E-02 2.17782986E-01-1.71631662E-01 3.00840961E-16-1.18130079E-15
19  2 5.58793865E-01 6.67689571E-16 1.85716831E-15-5.27705331E-01 2.38242201E-02
19  3-4.30644328E-02 1.92402127E-02 9.76993122E-02-2.16541681E-16 4.82235699E-16
19  4 5.84679587E-02 1.61728537E-01-1.05375667E-01-2.91791127E-15-3.89633697E-15
19  5-6.99998388E-01 3.53214187E-15 4.30225107E-15 7.47480150E-01 3.34357391E-02
19  6 3.34649334E-02-6.69006725E-02-4.26418749E-05-1.81526206E-15-7.61961181E-16
20  1-2.69936875E-16 5.51190018E-16-6.00638962E-16-3.18632555E-03 4.68569875E-03
20  2 1.89682608E-16 2.42720838E-03-3.56934946E-03-1.73048221E-16-7.98795766E-14
20  3 7.74173325E-14 2.46224405E-15 3.43231720E-14-5.32782890E-01 7.83491021E-01
20  4-9.08951066E-18 2.59775999E-16-1.71282820E-16-2.39637663E-02 3.52401383E-02
20  5 8.22661193E-17 3.07831585E-02-4.52684726E-02-9.27111198E-17 4.69843757E-14
20  6-5.31478851E-14 6.16350942E-15-3.99778728E-14-1.78299270E-01 2.62200383E-01
21  1 9.42469352E-17-2.54196664E-16 1.24303438E-16-1.12029566E-02-7.61813725E-03
21  2-3.48942824E-17-1.78165362E-03-1.21154586E-03-1.30979116E-16-1.06329392E-13
21  3 1.17044107E-13-1.07147154E-14 4.58720404E-14-7.73303104E-01-5.25854995E-01
21  4 5.10145437E-16 1.96811246E-16-2.09300488E-16-3.26825881E-02-2.22244680E-02
21  5-3.73124489E-16 4.25543499E-02 2.89373695E-02 3.73560233E-16-3.46057826E-13
21  6 3.36132897E-13 9.92492921E-15 1.55142984E-13-2.91017349E-01-1.97895140E-01
22  1-9.55198460E-14-9.96533415E-12-8.49574654E-12-2.96421582E-15-1.56817099E-15
22  2-4.26792785E-14 1.43198941E-16-3.61273562E-17-5.57438378E-14-5.69498215E-01
22  3 5.69498215E-01 5.23631543E-13 2.59933378E-01 1.25158927E-14-1.58901935E-13
22  4 9.52045927E-14 3.76714761E-13-2.67180029E-14 1.58239855E-15 2.27651038E-15
22  5-1.46153427E-12-1.84147311E-15-1.73263458E-15 1.41215676E-13 5.69498215E-01
22  6-5.69498215E-01-2.25668089E-12-2.59933378E-01-3.27666843E-13-1.69288933E-13
23  1-5.34933042E-06-1.44280650E-05 1.21224149E-05-2.76222500E-15-1.26431481E-15
23  2-2.41674453E-05 2.90461099E-16-1.44549217E-16 1.51604810E-05-5.51564490E-04
23  3-1.06205176E-03 1.61361625E-03 7.45631007E-04 1.31547414E-13 3.77797533E-14
23  4-5.09754294E-06-4.74334255E-06 1.91852350E-05 4.77741082E-16 2.95310301E-16
23  5 9.61228855E-05-1.41333878E-15-6.37617349E-16-7.69594627E-05-3.18507491E-01
23  6 3.18193686E-01 3.13805863E-04-9.29982355E-01-3.28106095E-13-1.29498077E-13
24  1 9.52279318E-14 9.96553946E-12 8.49817255E-12-5.76178748E-15-5.44266231E-15
24  2 3.66038606E-14-1.66577113E-17 4.44472074E-16 6.10821407E-14 5.69494817E-01
24  3-5.69494817E-01-7.91726077E-13-2.59931828E-01-1.23143365E-13 3.57071858E-15
24  4-9.44762236E-14-3.64704512E-13 3.49403691E-14 4.29588200E-15 2.93885364E-15
24  5 1.44414912E-12-4.27842179E-15-3.34988800E-15-1.35552650E-13 5.69494817E-01
24  6-5.69494817E-01 2.49501972E-12-2.59931828E-01-6.26421802E-13-6.09729951E-13
25  1-2.06565477E-16 1.56412382E-16-1.42225238E-16 7.33794825E-03 4.98988975E-03
25  2 3.86303882E-16-1.11887710E-04-7.60850710E-05-2.63329515E-16 2.57342179E-13
25  3-2.64405664E-13 7.06348496E-15-1.14190100E-13-2.91297516E-01-1.98085676E-01
25  4-9.68422412E-16 3.18657659E-16-3.34722612E-16-1.49172893E-04-1.01433875E-04
25  5 3.15025271E-16 2.06675731E-03 1.40541263E-03-2.78696279E-16 5.10000222E-13
25  6-4.92026178E-13-1.79740444E-14-6.24249365E-13 7.73845984E-01 5.26224212E-01
26  1 5.53087562E-16-1.73976359E-16 2.10508713E-16-3.75823835E-03 5.52672681E-03
26  2-2.70407864E-17 2.24349120E-03-3.29919678E-03 4.27754149E-17 1.46983455E-13
26  3-1.38409484E-13-8.57397122E-15-6.92529196E-14 1.78457861E-01-2.62433567E-01
26  4-4.23292634E-16 4.83556041E-17-5.22273592E-17-2.96066150E-05 4.35452224E-05
26  5-4.33386139E-16-1.19362515E-03 1.75529346E-03 3.53821762E-16 7.27771511E-14
26  6-7.48983609E-14 2.12120976E-15 5.98147184E-14-5.33203889E-01 7.84110041E-01
27  1 9.07021882E-04 3.39482897E-03-9.08948879E-04 2.01899693E-16 4.32571043E-17
27  2 8.29158858E-03 6.76821807E-17 1.39432624E-16-2.65155418E-03 2.75292125E-01
27  3 5.90453795E-01-8.65745920E-01-4.60333360E-01 4.30665007E-15 8.20239307E-15
27  4 2.60317283E-03 9.78136886E-03-2.59108258E-03-5.75839119E-16-6.43021831E-16
27  5-5.18894403E-02 7.22056708E-16 7.35723301E-16 3.67096905E-02 1.01882024E-02
27  6 1.13391578E-02-2.15273602E-02-1.68111552E-03 1.36468663E-14-6.17720738E-16
28  1 2.71985667E-16-5.03668576E-16 1.49931422E-16-4.76527889E-01-3.24044450E-01
28  2-2.86197180E-15-4.58873630E-01-3.12039363E-01-2.73935833E-15 4.03933833E-15
28  3-2.39401440E-15-1.64532393E-15 1.91336853E-15 1.25469828E-02 8.53207988E-03
28  4 6.05283601E-16 1.86984556E-15-1.51674371E-15-1.15178260E-01-7.83222438E-02
28  5-1.32685583E-16 1.53134871E-01 1.04133132E-01-2.92703339E-16 4.67129790E-15
28  6-8.55982380E-15 3.88852590E-15-3.08114752E-15 9.15133171E-03 6.22300614E-03
 $END
