 $CONTRL SCFTYP=GVB RUNTYP=ENERGY ICHARG=0 MULT=2 NOSYM=1 ICUT=11
  MAXIT=500 ISPHER=1 $END
 $SYSTEM MWORDS=312 $END
 $SCF NCO=5 NPAIR=2 NSETO=1 NO(1)=1 DIRSCF=.T. $END
 $GUESS GUESS=MOREAD NORB=28 $END
 $DATA
GAMESS inp file produced by MOKIT,nif=28,nbf=28
C1   1
C     6.         0.00000000         0.00000000         0.00000000
   S  8
   1   6.66500000E+03   6.91583963E-04   0.00000000E+00
   2   1.00000000E+03   5.32579615E-03   0.00000000E+00
   3   2.28000000E+02   2.70607210E-02   0.00000000E+00
   4   6.47100000E+01   1.01656846E-01   0.00000000E+00
   5   2.10600000E+01   2.74574824E-01   0.00000000E+00
   6   7.49500000E+00   4.48294319E-01   0.00000000E+00
   7   2.79700000E+00   2.84902611E-01   0.00000000E+00
   8   5.21500000E-01   1.51948592E-02   0.00000000E+00
   S  8
   1   6.66500000E+03  -2.93269653E-04   0.00000000E+00
   2   1.00000000E+03  -2.31803547E-03   0.00000000E+00
   3   2.28000000E+02  -1.14997860E-02   0.00000000E+00
   4   6.47100000E+01  -4.68267270E-02   0.00000000E+00
   5   2.10600000E+01  -1.28466169E-01   0.00000000E+00
   6   7.49500000E+00  -3.01266272E-01   0.00000000E+00
   7   2.79700000E+00  -2.55630702E-01   0.00000000E+00
   8   5.21500000E-01   1.09379336E+00   0.00000000E+00
   S  1
   1   1.59600000E-01   1.00000000E+00   0.00000000E+00
   P  3
   1   9.43900000E+00   5.69792516E-02   0.00000000E+00
   2   2.00200000E+00   3.13207212E-01   0.00000000E+00
   3   5.45600000E-01   7.60376742E-01   0.00000000E+00
   P  1
   1   1.51700000E-01   1.00000000E+00   0.00000000E+00
   D  1
   1   5.50000000E-01   1.00000000E+00   0.00000000E+00

F     9.         0.00000000         0.00000000         1.60000000
   S  8
   1   1.47100000E+04   7.20673709E-04   0.00000000E+00
   2   2.20700000E+03   5.55048697E-03   0.00000000E+00
   3   5.02800000E+02   2.82542077E-02   0.00000000E+00
   4   1.42600000E+02   1.06395828E-01   0.00000000E+00
   5   4.64700000E+01   2.86684201E-01   0.00000000E+00
   6   1.67000000E+01   4.48437966E-01   0.00000000E+00
   7   6.35600000E+00   2.64641181E-01   0.00000000E+00
   8   1.31600000E+00   1.53260610E-02   0.00000000E+00
   S  8
   1   1.47100000E+04  -3.21193890E-04   0.00000000E+00
   2   2.20700000E+03  -2.54619157E-03   0.00000000E+00
   3   5.02800000E+02  -1.26433595E-02   0.00000000E+00
   4   1.42600000E+02  -5.19574917E-02   0.00000000E+00
   5   4.64700000E+01  -1.43447138E-01   0.00000000E+00
   6   1.67000000E+01  -3.32437623E-01   0.00000000E+00
   7   6.35600000E+00  -2.18659068E-01   0.00000000E+00
   8   1.31600000E+00   1.09559041E+00   0.00000000E+00
   S  1
   1   3.89700000E-01   1.00000000E+00   0.00000000E+00
   P  3
   1   2.26700000E+01   6.48340215E-02   0.00000000E+00
   2   4.97700000E+00   3.40535360E-01   0.00000000E+00
   3   1.34700000E+00   7.34646407E-01   0.00000000E+00
   P  1
   1   3.47100000E-01   1.00000000E+00   0.00000000E+00
   D  1
   1   1.64000000E+00   1.00000000E+00   0.00000000E+00

 $END
 $VEC
 1  1-5.77664508E-02 1.31795295E-03 1.07894960E-04-1.71214716E-14-3.69404748E-14
 1  2 4.22483118E-04-1.84081578E-14-3.15433669E-14-7.58084591E-04 1.52259192E-05
 1  3 1.96859006E-05-3.49118198E-05 2.21646932E-05-5.69523188E-15-1.07538183E-14
 1  4-9.98596024E-01 1.75202629E-02 2.44060494E-02-1.09498806E-13-2.73469512E-13
 1  5 2.48342319E-03-7.99621584E-14-1.96581314E-13 9.01158084E-05-1.60727922E-04
 1  6-1.52873827E-04 3.13601749E-04 3.90323614E-05 1.02972872E-15 6.17340180E-15
 2  1-9.91556870E-01 1.26058383E-02 1.83745743E-02 3.59208841E-14 4.15600512E-14
 2  2-7.69850092E-03 3.38746938E-14 3.86803885E-14-2.81785968E-03-6.68528330E-05
 2  3 8.68554178E-06 5.81672912E-05 3.75401771E-04 1.12392715E-14 1.29763530E-14
 2  4 6.10997501E-02 5.76924870E-02 6.55556953E-02 2.56866667E-13 2.97680311E-13
 2  5 1.69205656E-02 1.86199397E-13 2.15641035E-13 1.19430319E-02-7.55217292E-05
 2  6-9.45487508E-05 1.70070480E-04-9.45582653E-05-4.42460535E-15-5.08882903E-15
 3  1-1.13957143E-01-1.38240966E-02-2.76777989E-03 5.64066136E-15 1.27846411E-14
 3  2-4.18565281E-02 6.12720100E-15 1.04915788E-14-1.34072760E-02 6.71468046E-03
 3  3 6.66415354E-03-1.33788340E-02-2.51102790E-04 1.76999693E-15 3.65422231E-15
 3  4-2.44526108E-02-4.92057077E-01-5.62700379E-01 3.68981141E-14 9.29418523E-14
 3  5-1.69833205E-02 2.78030915E-14 6.70430131E-14-1.07698831E-02 9.92104691E-04
 3  6 1.10157289E-03-2.09367758E-03 5.44022231E-04-7.83416405E-16-1.59530835E-15
 4  1 5.93867779E-13 4.47372847E-16-2.40521435E-14 5.57541620E-02 6.26063542E-02
 4  2 5.63552461E-14 5.36753519E-02 6.02720582E-02 2.22364485E-14-4.13853079E-15
 4  3-4.08502676E-15 8.22355755E-15-8.42400407E-17 1.80088878E-02 2.02221819E-02
 4  4-4.63723191E-13 3.83842527E-14 4.29330275E-14 4.29119801E-01 4.81858669E-01
 4  5-9.43768324E-14 3.10621328E-01 3.48796721E-01-6.94580080E-14-1.45983841E-15
 4  6-1.50502356E-15 2.96486197E-15 9.14104727E-17-7.51253631E-03-8.43582781E-03
 5  1-5.98478962E-15 1.17833702E-15 2.32344637E-15 5.25453142E-02-4.67942910E-02
 5  2-4.41862859E-15 4.11535996E-02-3.66493864E-02-1.68102831E-15 6.52764356E-16
 5  3 3.11197809E-16-9.63962165E-16 7.32775937E-17 1.67151769E-02-1.48857203E-02
 5  4 1.51053739E-13-2.75540203E-14-3.19991790E-14 4.91061264E-01-4.37315182E-01
 5  5 2.04448440E-15 3.48643699E-01-3.10485054E-01 1.81593915E-15 1.37358654E-16
 5  6 1.14297719E-16-2.51656373E-16 5.54117822E-17-7.50984855E-03 6.68790439E-03
 6  1 1.60824650E-16 1.85538773E-16-1.00315726E-15 5.41505667E-01-4.82238505E-01
 6  2-8.45641923E-16 3.06461552E-01-2.72919693E-01-6.19622919E-16 9.01177350E-17
 6  3-6.59740436E-19-8.94579946E-17 4.20128038E-17 2.88025285E-03-2.56501254E-03
 6  4-1.62830365E-17-1.95941912E-16 7.98686546E-16-1.04361935E-01 9.29396436E-02
 6  5-3.03347191E-16-9.82762720E-02 8.75200488E-02-6.15780567E-16 1.35198958E-16
 6  6-1.49859895E-16 1.46609370E-17 5.27527280E-17-3.53722780E-03 3.15008236E-03
 7  1 2.12657608E-02-8.03482649E-02 4.33740119E-02 7.86492095E-15 9.96785076E-15
 7  2-2.81347970E-01 8.65174747E-15 1.00504103E-14-1.11586671E-01 2.00091061E-02
 7  3 2.00290985E-02-4.00382046E-02 9.93561044E-05 2.51839611E-15 3.28989124E-15
 7  4 4.64972979E-03 4.08174002E-02 6.93254756E-02 6.35389325E-14 7.70339777E-14
 7  5 5.64106081E-01 4.62126515E-14 5.56136695E-14 4.09562406E-01 8.45391705E-03
 7  6 8.39909375E-03-1.68530108E-02-2.72454442E-04-1.36540031E-15-1.14373077E-15
 8  1 1.70410981E-02-6.99076532E-02-2.64225785E-01-3.14053079E-14 7.15141024E-14
 8  2-8.25932167E-01 7.18506233E-14-3.90561175E-14-5.55571766E-02 2.31906303E-01
 8  3 1.60342982E-01-3.92249285E-01-3.55647015E-01 1.76695958E-14-1.99922884E-15
 8  4-1.12179005E-03 1.10110106E-01 2.54553597E-01-3.19052867E-14 2.40872149E-14
 8  5-4.72151435E-01 1.14893675E-14-2.78006346E-14-2.53192101E-01 4.89238225E-03
 8  6 7.05823190E-04-5.59820544E-03-2.08058711E-02-6.54162474E-15 6.28058922E-15
 9  1 4.02842791E-02 5.21279169E-01 5.47673227E-01-2.09026490E-17 1.42562344E-15
 9  2-1.59445377E-01 9.30514562E-16 5.39746339E-16-1.09564723E-01 5.59131257E-03
 9  3 5.14467853E-03-1.07359911E-02-2.21962959E-03-8.20119556E-17-2.10260311E-16
 9  4-1.00841270E-03-4.01718995E-02-7.67406185E-02 2.80813972E-15 7.90488176E-15
 9  5 3.65438162E-02 2.80489544E-15 6.98306758E-15 5.07514334E-02-2.02904694E-03
 9  6-1.98985820E-03 4.01890514E-03 1.94755649E-04-3.92662393E-16-4.11081123E-17
10  1 1.93964720E-01 5.37964763E-01-3.72059564E-01-3.26869708E-14 3.36410410E-15
10  2 2.20662135E-01 1.61876253E-14-2.99964342E-14 3.63176663E-01 2.83618533E-01
10  3 1.53590766E-01-4.37209299E-01-6.46196779E-01 2.25827236E-15-6.32187341E-15
10  4 1.28781676E-02 4.50249419E-03-9.07863937E-02-8.21746761E-15 1.50580925E-14
10  5 1.20279097E-01 1.00791846E-14-4.54315614E-15 1.08811033E-01-3.37165820E-03
10  6-3.59149111E-03 6.96314931E-03-1.09249985E-03-2.21398452E-15 4.29690445E-15
11  1-1.97731083E-14-2.62002148E-14 4.52013021E-14 6.01620940E-01-5.35774191E-01
11  2 5.30649728E-14-6.60445230E-01 5.88160281E-01-6.48998088E-15-3.91668139E-14
11  3-1.68583754E-14 5.60251893E-14 6.54703511E-14-6.00697367E-02 5.34951816E-02
11  4-4.14715103E-15-1.78056977E-14-1.21684262E-14 3.72059706E-01-3.31338190E-01
11  5 3.70465963E-14-2.83672464E-01 2.52624811E-01 1.36512712E-14-6.76538059E-15
11  6 2.08893206E-15 4.67644853E-15 4.39529815E-15 5.73564729E-02-5.10788745E-02
12  1-9.83771500E-15-4.13163433E-15 7.12153133E-14 4.74020835E-01 5.32277973E-01
12  2 2.26689857E-13 2.68100410E-01 3.01050040E-01-6.19993120E-14-8.99059512E-14
12  3-8.01688118E-14 1.70074763E-13 1.85306972E-13 7.82525210E-02 8.78697758E-02
12  4 7.73191957E-16-2.43791325E-14-4.86097818E-14-1.40641926E-01-1.57926864E-01
12  5 1.26233735E-13-7.56112412E-02-8.49038446E-02 4.74876602E-14-1.34428547E-15
12  6 7.22503166E-15-5.88074619E-15 9.38772309E-16-1.05310180E-03-1.18253376E-03
13  1 3.61925260E-01 7.01273099E-01-1.64276312E+00-2.23358841E-13-5.29782617E-14
13  2-2.17840802E-02 3.83010794E-14-1.75135275E-13-1.34276148E+00 3.41641948E-01
13  3 3.49172857E-01-6.90814805E-01 3.74262345E-02-1.49862445E-14-3.45709196E-14
13  4-6.90354940E-01-1.48784554E+00 2.61425499E+00-2.94674433E-14 9.45975700E-14
13  5 2.58640522E-01 7.30273569E-14-1.72054423E-14-1.14021154E+00-7.20355768E-02
13  6-7.18645582E-02 1.43900135E-01 8.49908145E-04-1.22458260E-14 7.43822906E-15
14  1 5.28800186E-01 1.30802818E+00-1.28824656E+00-1.14636782E-13-5.80498882E-14
14  2-6.17303051E-02 1.95960518E-14-5.60603058E-14-1.88789302E-02-9.35626302E-02
14  3-5.23370328E-02 1.45899663E-01 2.04878148E-01-8.07079944E-15-1.50021107E-14
14  4 2.97511521E-01 7.62955925E-01-5.59242611E-01-3.19361518E-15 4.46073988E-14
14  5 3.87891492E-02 2.45412817E-14-1.05643294E-14-8.97694440E-02 2.83582080E-02
14  6 2.75402990E-02-5.58985070E-02-4.06474881E-03-3.93914967E-15 2.64450363E-15
15  1 7.90870042E-16 2.24345082E-15-1.04760619E-14 4.02295867E-01 4.51738036E-01
15  2-5.83261354E-15-6.24395963E-01-7.01134242E-01-8.72246641E-16-2.53252199E-15
15  3 9.19584726E-16 1.61293726E-15 1.28845326E-14-2.10891055E-01-2.36809574E-01
15  4 8.36242587E-15 2.10912261E-14-1.70638415E-14-4.25953099E-01-4.78302754E-01
15  5 2.57979471E-14 6.44023412E-01 7.23173916E-01-3.13482037E-14-2.13317159E-15
15  6-2.33998566E-15 4.47315725E-15 4.93718943E-16-5.71904294E-02-6.42191358E-02
16  1-1.78546611E-14-4.23726115E-14 2.19210003E-14 3.18057755E-01-2.83246730E-01
16  2 5.94468598E-16-5.51094893E-01 4.90778249E-01-1.65969007E-14 5.27080509E-15
16  3 6.33039981E-15-1.16012049E-14 9.23598761E-15-2.57286505E-01 2.29126809E-01
16  4 1.09039481E-14 2.82091225E-14-1.89006795E-14-5.83074794E-01 5.19257956E-01
16  5 5.60906405E-14 8.12746005E-01-7.23791938E-01-7.05722253E-14-4.88804181E-15
16  6-5.43285579E-15 1.03208976E-14 3.65002066E-16-6.88766489E-02 6.13381832E-02
17  1-1.95933346E-01-5.17747983E-01 1.13962586E-01-4.38434377E-14 5.51120883E-15
17  2-1.43962871E-01 5.74692320E-14-2.14528378E-14-3.03760632E-01 1.85574468E-01
17  3 1.74584883E-01-3.60159351E-01-5.46147564E-02 2.10080789E-14-1.05888220E-14
17  4 1.75680323E-01 5.02799076E-01-2.17945039E-01 4.46999666E-14-1.71233141E-14
17  5 7.51126897E-01-6.37156381E-14 2.72898336E-14-1.16540506E+00-7.28392610E-02
17  6-7.21087500E-02 1.44948011E-01 3.63040759E-03 5.24794866E-15-1.61916341E-15
18  1-2.00150157E-02-7.97057869E-02 1.05001385E-01 7.05845097E-14-5.45274811E-15
18  2 8.12745737E-01-2.36178186E-14 6.86839576E-14-1.02651583E+00 1.31944836E-01
18  3 1.04761040E-01-2.36705876E-01-1.35094848E-01-1.76281417E-15 2.50660781E-15
18  4 1.74824844E-01 4.86136233E-01-6.98814308E-02 1.14103951E-15-4.47786774E-14
18  5-3.83719744E-01-8.68114418E-15 2.33829705E-14 3.11908131E-01 2.28359862E-02
18  6 2.22600396E-02-4.50960258E-02-2.86227213E-03 7.81220905E-16-3.81962111E-15
19  1 2.02832731E-15-2.23049338E-15-1.12621455E-14-4.75668057E-01-5.34127701E-01
19  2-6.74018206E-14 4.67319728E-01 5.24753361E-01 3.83803286E-14 3.07919648E-14
19  3 9.23398908E-15-4.00259539E-14-5.59437354E-14-1.35834368E-01-1.52528436E-01
19  4-5.48248617E-15-7.37344878E-15 1.40182970E-14-4.25159425E-01-4.77411570E-01
19  5-2.65040351E-14 4.14457602E-01 4.65394494E-01-1.08528415E-14-7.84794478E-16
19  6 1.95948411E-15-1.17468963E-15-3.26175007E-15-1.26790208E-02-1.42372724E-02
20  1 1.15732155E-02 7.58347294E-03-3.43040292E-02-4.33139442E-14 3.07090733E-16
20  2-1.10817198E-01 1.98367205E-14-3.26428245E-14 1.41022516E-01 2.67434752E-01
20  3 3.53288246E-01-6.20722998E-01 4.26664641E-01-7.69600564E-15 1.17128171E-14
20  4 1.33759347E-02 6.37064975E-02 3.82260939E-02-7.31144119E-15 1.30848545E-14
20  5-2.15667319E-01 1.21078644E-14-4.36400934E-15 7.79807717E-02-3.66076821E-01
20  6-3.70116865E-01 7.36193686E-01-2.00777354E-02-7.94030499E-17 1.20791149E-14
21  1 1.46854570E-15 1.77471337E-15-4.08682722E-15-9.27236856E-02 8.25751793E-02
21  2-5.63424485E-15 8.97944852E-02-7.99665844E-02-2.23553620E-15-8.28262099E-16
21  3-2.08830181E-15 2.91656391E-15-1.48625118E-14-5.59533636E-01 4.98293308E-01
21  4 1.63297530E-15 1.17732662E-15 1.28457326E-15 1.24819829E-01-1.11158438E-01
21  5-2.55010689E-15-4.37555639E-02 3.89665686E-02-2.61913973E-15 3.50194270E-15
21  6 8.13244560E-15-1.16343883E-14 1.55446039E-15-5.23110672E-01 4.65856795E-01
22  1 9.99838169E-16 5.12470751E-16-4.57961762E-15 8.01240107E-03 8.99713615E-03
22  2-1.73339184E-14 4.50889963E-02 5.06304280E-02 8.92919368E-15 2.82797929E-14
22  3-8.33580880E-15-1.99439841E-14-1.04273178E-14-4.44653644E-01-4.99301648E-01
22  4-8.81429052E-16 1.91993613E-15 3.03986823E-15 1.25008676E-01 1.40372269E-01
22  5-1.08569831E-14-7.15965249E-02-8.03957542E-02-1.57836668E-15-1.16390701E-14
22  6 2.21223479E-15 9.42683529E-15-5.94033650E-15-5.12469670E-01-5.75452277E-01
23  1 4.05903725E-13 2.27016613E-12 2.31230242E-12 3.35564404E-15 5.16905783E-15
23  2 8.38825606E-12 8.29496370E-15 7.78444216E-15 8.80454969E-12-6.12607485E-01
23  3 6.12607485E-01-9.64586080E-12-8.21792850E-02-8.96642384E-15-6.36158589E-15
23  4-1.35971568E-12-4.70412727E-12-3.95300117E-13-1.92071926E-15-2.29315282E-15
23  5 1.05301130E-11-1.55055324E-16-8.11563416E-16 3.32364248E-12 6.12607485E-01
23  6-6.12607485E-01 3.20381641E-11 8.21792850E-02-1.05654574E-14-1.36127290E-14
24  1 4.45222711E-03 7.32793449E-03-1.45002514E-02-5.24475405E-15 2.96246682E-15
24  2-1.82014149E-02 6.09259953E-15-3.30569759E-15-6.18773536E-03-1.19775752E-03
24  3-9.32482708E-03 1.05225846E-02-4.03889589E-02-4.10044158E-15 1.10332642E-15
24  4 1.94148038E-03 6.81954846E-03 9.25827733E-04-2.68645413E-15 1.75130739E-15
24  5-1.40767631E-02 2.66995395E-15-1.79178102E-15 4.13926811E-03-1.27876322E-01
24  6 7.15444286E-02 5.63318934E-02 9.91057904E-01 2.48031264E-15-7.90174185E-15
25  1-5.14464220E-13-2.43357675E-12-1.97829270E-12 3.72608218E-15-7.88609256E-15
25  2-8.67923174E-12-1.11228825E-14 2.13226398E-15-6.73494635E-12 6.04045603E-01
25  3-6.04045603E-01 3.41239867E-12 8.10307366E-02 1.06920851E-14-4.24323287E-15
25  4 1.26726209E-12 4.64969590E-12 8.02759853E-13 3.92829227E-15-8.03367306E-16
25  5-1.13739682E-11-3.43803665E-15 3.28662635E-15-3.33444030E-12 6.04045603E-01
25  6-6.04045603E-01-2.97512484E-11 8.10307366E-02-7.15780079E-15 1.58274810E-14
26  1-3.28100652E-15-4.42293757E-15 1.00946448E-14 1.10926206E-01-9.87854498E-02
26  2 1.41768146E-14-1.51108939E-01 1.34570246E-01 1.81268613E-15-2.07511013E-14
26  3 1.23780323E-14 8.37306893E-15 2.19343988E-14 4.68545802E-01-4.17264001E-01
26  4 7.72823193E-17-4.72581464E-15-3.28571839E-15-2.84717281E-02 2.53555305E-02
26  5 1.00903927E-14-4.58824997E-02 4.08607069E-02 3.55779836E-15-1.29846181E-14
26  6 1.06912296E-14 2.29338848E-15 8.11857117E-15-5.31620931E-01 4.73435625E-01
27  1 5.80398020E-16 1.65870672E-15-1.53717571E-15-5.13173089E-02-5.76242143E-02
27  2 4.77851707E-15-4.55902020E-02-5.11932407E-02-7.95451564E-15-1.05953591E-14
27  3-1.95324875E-14 3.01278466E-14-1.91337545E-14 4.59242642E-01 5.15683624E-01
27  4-3.65293514E-17-1.78104276E-15-2.43649665E-15-1.02701594E-01-1.15323635E-01
27  5 7.20865023E-15 3.27538900E-02 3.67793483E-02 2.50074457E-15-1.90345351E-14
27  6-1.82962555E-14 3.73307906E-14-4.91344187E-15-4.25999655E-01-4.78355070E-01
28  1 1.86276428E-02 2.78677868E-02-6.05036854E-02-6.66837751E-16 8.08519579E-16
28  2-2.37206598E-02 7.97418175E-16-3.26603322E-16-1.20453406E-01-1.96483791E-01
28  3-2.85234250E-01 4.81718041E-01-4.41061639E-01-2.15814667E-14-3.07314966E-14
28  4-8.64935253E-04-1.68507935E-02-2.41211341E-02 5.29641099E-15 8.22332627E-15
28  5 6.16123769E-02-6.97500920E-16-1.77372986E-15 2.99682948E-02-3.35494703E-01
28  6-3.47909670E-01 6.83404373E-01-6.16984482E-02 2.07361435E-14 3.00430717E-14
 $END
