 $CONTRL SCFTYP=GVB RUNTYP=ENERGY ICHARG=0 MULT=2 NOSYM=1 ICUT=11
  MAXIT=500 ISPHER=1 $END
 $SYSTEM MWORDS=312 $END
 $SCF NCO=5 NPAIR=2 NSETO=1 NO(1)=1 DIRSCF=.T. $END
 $GUESS GUESS=MOREAD NORB=28 $END
 $DATA
GAMESS inp file produced by MOKIT,nif=28,nbf=28
C1   1
C     6.         0.00000000         0.00000000         0.00000000
   S  8
   1   6.66500000E+03   6.91583963E-04   0.00000000E+00
   2   1.00000000E+03   5.32579615E-03   0.00000000E+00
   3   2.28000000E+02   2.70607210E-02   0.00000000E+00
   4   6.47100000E+01   1.01656846E-01   0.00000000E+00
   5   2.10600000E+01   2.74574824E-01   0.00000000E+00
   6   7.49500000E+00   4.48294319E-01   0.00000000E+00
   7   2.79700000E+00   2.84902611E-01   0.00000000E+00
   8   5.21500000E-01   1.51948592E-02   0.00000000E+00
   S  8
   1   6.66500000E+03  -2.93269653E-04   0.00000000E+00
   2   1.00000000E+03  -2.31803547E-03   0.00000000E+00
   3   2.28000000E+02  -1.14997860E-02   0.00000000E+00
   4   6.47100000E+01  -4.68267270E-02   0.00000000E+00
   5   2.10600000E+01  -1.28466169E-01   0.00000000E+00
   6   7.49500000E+00  -3.01266272E-01   0.00000000E+00
   7   2.79700000E+00  -2.55630702E-01   0.00000000E+00
   8   5.21500000E-01   1.09379336E+00   0.00000000E+00
   S  1
   1   1.59600000E-01   1.00000000E+00   0.00000000E+00
   P  3
   1   9.43900000E+00   5.69792516E-02   0.00000000E+00
   2   2.00200000E+00   3.13207212E-01   0.00000000E+00
   3   5.45600000E-01   7.60376742E-01   0.00000000E+00
   P  1
   1   1.51700000E-01   1.00000000E+00   0.00000000E+00
   D  1
   1   5.50000000E-01   1.00000000E+00   0.00000000E+00

F     9.         0.00000000         0.00000000         2.20000000
   S  8
   1   1.47100000E+04   7.20673709E-04   0.00000000E+00
   2   2.20700000E+03   5.55048697E-03   0.00000000E+00
   3   5.02800000E+02   2.82542077E-02   0.00000000E+00
   4   1.42600000E+02   1.06395828E-01   0.00000000E+00
   5   4.64700000E+01   2.86684201E-01   0.00000000E+00
   6   1.67000000E+01   4.48437966E-01   0.00000000E+00
   7   6.35600000E+00   2.64641181E-01   0.00000000E+00
   8   1.31600000E+00   1.53260610E-02   0.00000000E+00
   S  8
   1   1.47100000E+04  -3.21193890E-04   0.00000000E+00
   2   2.20700000E+03  -2.54619157E-03   0.00000000E+00
   3   5.02800000E+02  -1.26433595E-02   0.00000000E+00
   4   1.42600000E+02  -5.19574917E-02   0.00000000E+00
   5   4.64700000E+01  -1.43447138E-01   0.00000000E+00
   6   1.67000000E+01  -3.32437623E-01   0.00000000E+00
   7   6.35600000E+00  -2.18659068E-01   0.00000000E+00
   8   1.31600000E+00   1.09559041E+00   0.00000000E+00
   S  1
   1   3.89700000E-01   1.00000000E+00   0.00000000E+00
   P  3
   1   2.26700000E+01   6.48340215E-02   0.00000000E+00
   2   4.97700000E+00   3.40535360E-01   0.00000000E+00
   3   1.34700000E+00   7.34646407E-01   0.00000000E+00
   P  1
   1   3.47100000E-01   1.00000000E+00   0.00000000E+00
   D  1
   1   1.64000000E+00   1.00000000E+00   0.00000000E+00

 $END
 $VEC
 1  1-3.91962822E-02 5.17156814E-04 1.18743712E-03-5.27541320E-15 1.65321056E-15
 1  2-3.09677855E-04-1.44969320E-14 4.65849709E-15 2.26493502E-04-3.25750249E-05
 1  3-3.62097025E-05 6.87847274E-05 5.60665515E-07-6.11188232E-15 8.98463432E-16
 1  4 9.98947740E-01-2.01050387E-02-2.48150297E-02-6.08846118E-13 8.28104818E-14
 1  5-5.81092525E-04-4.26840097E-13 5.89883105E-14 6.97043283E-05 1.16655530E-04
 1  6 1.06991274E-04-2.23646804E-04 1.49075529E-06-3.48525787E-18-5.91933638E-16
 2  1-9.99592437E-01 1.47127860E-02 2.15703099E-02-6.54846384E-15-3.01741554E-15
 2  2-5.46094144E-04-1.86839715E-14-7.20481910E-15 2.28263043E-04-1.50541083E-04
 2  3 3.60100274E-05 1.14531056E-04-2.87763541E-05-7.92484334E-15-2.34867732E-15
 2  4-3.90691719E-02-2.87892424E-04-1.53704708E-03-7.96595228E-13-2.31304591E-13
 2  5-1.07940587E-03-5.57909794E-13-1.62610431E-13-5.60271766E-04-3.88126237E-05
 2  6-3.84783983E-05 7.72910220E-05-5.15557732E-08-7.20801137E-16 8.09357852E-16
 3  1-1.24266345E-12 6.72494854E-14 8.27546786E-14 5.30164181E-03 6.96030485E-04
 3  2-9.12855847E-14 1.65235288E-02 2.16930528E-03-6.17576870E-14 1.59959912E-16
 3  3 1.46116394E-15-1.62112385E-15-4.67615468E-17 5.49315501E-03 7.21173427E-04
 3  4 8.28616127E-13-8.71114409E-15-7.37851215E-15 6.77411360E-01 8.89345135E-02
 3  5 1.06681891E-13 4.62307617E-01 6.06944399E-02 7.08806243E-14 5.21920983E-16
 3  6 5.92865727E-16-1.11478671E-15 5.54802116E-17-1.05981587E-03-1.39138809E-04
 4  1-1.76528307E-13 8.40068633E-15 9.55188894E-15-1.14508724E-03 8.72209335E-03
 4  2 2.31353653E-14-2.97236223E-03 2.26403890E-02 1.57535066E-14-2.60483876E-16
 4  3-2.04714430E-16 4.65198306E-16 1.96581565E-16-7.76074462E-04 5.91133451E-03
 4  4-2.47096331E-13 1.48623477E-15 1.22026968E-16-8.87463411E-02 6.75978056E-01
 4  5-3.13648441E-14-6.07912341E-02 4.63044896E-01-2.05662072E-14-2.18363359E-16
 4  6-1.82534731E-16 4.00898090E-16-4.13236853E-17 1.58007680E-04-1.20353948E-03
 5  1-3.92962490E-03-1.59180280E-02-1.13382699E-02-1.38828942E-16 3.71336962E-16
 5  2-3.62877022E-02-4.65594141E-16 3.29143806E-16-2.20351317E-02-9.33842244E-04
 5  3-5.35751456E-04 1.46959370E-03-6.14073094E-05 1.83060899E-16-2.55883438E-16
 5  4 3.82570109E-02 5.10524142E-01 5.72075228E-01-2.31242781E-14 3.37815567E-15
 5  5 6.02234591E-02-1.57964930E-14 3.41238014E-15 4.07072867E-02 7.15956242E-04
 5  6 8.29035168E-04-1.54499141E-03-1.74429369E-05 2.82549476E-16-4.21150582E-16
 6  1 1.40116330E-17-4.49366463E-17-1.16816612E-16-6.79403089E-01-8.91959920E-02
 6  2-3.98528648E-16-4.47672333E-01-5.87730295E-02-5.60439052E-17 1.90829248E-16
 6  3-1.98655428E-16 7.82618008E-18-5.67946170E-16-1.05964774E-03-1.39116723E-04
 6  4-5.15896513E-17 7.76724733E-17-8.47833063E-17 3.61697939E-02 4.74858107E-03
 6  5-7.14229949E-17 3.18876391E-02 4.18639487E-03-1.24123998E-16-1.41296529E-17
 6  6 1.48083847E-17-6.78731874E-19 8.13585391E-17 1.55032349E-03 2.03535492E-04
 7  1 3.31930237E-02 5.03943647E-01 5.74077861E-01-5.21366914E-16-2.39609887E-16
 7  2-5.25005571E-02-1.54811486E-15-4.32389227E-16-3.95136671E-02 2.75560585E-04
 7  3-9.99225876E-04 7.23665291E-04 1.96641589E-04-6.68450732E-16-5.00683178E-16
 7  4-3.21961704E-04-7.55067675E-03-1.83533169E-02-6.86587261E-14-1.52455026E-14
 7  5 2.12631775E-02-4.68831592E-14-1.05966391E-14 1.80674013E-02-8.57959878E-04
 7  6-8.13014282E-04 1.67097416E-03-6.93306190E-06 1.83505863E-16 4.12158187E-17
 8  1 3.51559239E-01 8.59943259E-01-8.84154856E-01-1.65856242E-15 2.14372422E-14
 8  2-1.47849798E-01 1.14882487E-14 1.89218656E-14-4.10745842E-03 4.14407440E-01
 8  3-7.98316911E-01 3.83909471E-01 1.87068229E-01-1.44121311E-14-1.39951761E-14
 8  4-1.04555208E-02-1.17208995E-02 7.17866210E-02 9.72903806E-14-6.66354553E-15
 8  5 4.56475151E-02-1.14348845E-13 6.45344704E-15-1.85631022E-01 4.09737680E-03
 8  6 4.61339058E-03-8.71076738E-03-7.95974660E-05-1.03889085E-14 9.57991052E-16
 9  1-2.75870761E-03-1.44418434E-02-9.80507366E-03-1.48259366E-15 2.47364606E-15
 9  2-3.99261541E-01-3.73796231E-15 1.98067197E-15-2.72751853E-01 2.78478748E-03
 9  3 5.66274184E-03-8.44752932E-03-4.43937509E-04-1.04449740E-15 1.59992470E-17
 9  4-3.74766933E-03-3.26613734E-02-2.83067018E-03-1.46781985E-13 2.17092947E-14
 9  5 5.02932050E-01-1.00005875E-13 1.56532967E-14 3.28401746E-01 2.52066993E-03
 9  6 2.42960001E-03-4.95026994E-03 1.40479470E-05 1.39059144E-16 2.58076678E-17
10  1-3.65669257E-02-1.35065330E-01 3.05201444E-02-7.54475586E-15 1.09438457E-14
10  2-5.33937485E-01 1.59255219E-14 2.06924248E-14-3.74558141E-01-3.99594366E-02
10  3 9.19030023E-02-5.19435657E-02-2.03403790E-02-3.03266394E-14 3.93265422E-15
10  4 3.32339198E-02 1.19572217E-01 6.65279986E-03 1.67620295E-13-1.78993815E-14
10  5-5.28552703E-01-1.92384637E-13 1.52644754E-14-2.59612656E-01-4.26475170E-02
10  6-4.21803789E-02 8.48278959E-02-7.20581780E-05-1.68284560E-14 1.25875466E-15
11  1-8.60538924E-03-4.40528699E-02-1.26379561E-02-2.48781040E-15 9.94595497E-15
11  2-6.02215983E-02 3.42202931E-14 1.89488755E-14-1.15566649E-01-2.03243181E-02
11  3 1.65779778E-02 3.74634025E-03-5.69234645E-03-5.20200644E-14-3.31536432E-15
11  4-3.00209743E-01-7.34194320E-01 7.54300954E-01 2.78565088E-13-3.56373868E-15
11  5 1.22172627E-02-3.06339612E-13-1.20606549E-15-1.30500562E-01 4.39679376E-01
11  6 4.34120901E-01-8.73800277E-01 8.57420035E-04-4.06755084E-14-6.28846541E-15
12  1 3.20170731E-14 1.27882679E-13-1.18339880E-13-2.85111798E-02 2.17168793E-01
12  2 1.82901159E-14-4.49775200E-02 3.42592283E-01 2.35307387E-14 6.85887312E-14
12  3-1.35179273E-13 6.65905416E-14 1.61244465E-14-1.56817234E-02 1.19447330E-01
12  4-4.45897596E-14-4.81135904E-14 4.10733646E-14 1.01215346E-01-7.70954895E-01
12  5 5.35860323E-14-1.07107206E-01 8.15833107E-01-1.95624731E-14 2.43345040E-14
12  6 2.92532978E-14-5.35878018E-14 1.27612763E-14-8.58173541E-03 6.53668902E-02
13  1-2.38117903E-14-7.28561895E-14 5.93282481E-14 2.71051243E-02 3.55855409E-03
13  2-1.38288266E-13-1.03913662E-01-1.36423325E-02-1.88506160E-14 4.62621822E-14
13  3-8.11905076E-14 3.49283254E-14 3.05802971E-14 1.60058068E-01 2.10133748E-02
13  4 1.86066478E-13 4.97228719E-13-4.58543193E-13-8.93997018E-01-1.17369262E-01
13  5-1.30911456E-13 1.01942633E+00 1.33836359E-01-1.39666501E-14-3.01330274E-13
13  6-2.95584386E-13 5.96914660E-13 2.86850495E-15 9.58926008E-02 1.25893497E-02
14  1-3.33304315E-01-7.44341475E-01 9.45925569E-01 1.15409496E-14-3.58263040E-14
14  2-5.81707940E-01-6.56761933E-14-7.57353478E-14 1.05576093E+00-7.08770374E-02
14  3-2.91741743E-01 3.62618780E-01 3.40693821E-02 1.21551420E-13-1.01960388E-14
14  4 4.04469725E-01 9.11518020E-01-1.25031442E+00-6.64101160E-13 6.39147833E-14
14  5-3.67973254E-01 7.48935519E-13-5.98773001E-14 8.12302913E-01 1.42152770E-01
14  6 1.41037103E-01-2.83189873E-01 1.72096799E-04 6.90609097E-14-4.78921220E-15
15  1 2.00500625E-02 3.10753491E-02-8.95725216E-02 1.31532044E-14-3.54619341E-15
15  2 2.17285703E-01-5.60652473E-14-3.25238932E-14-3.45084949E-01 2.31977308E-02
15  3 8.33835602E-02-1.06581291E-01-9.28393705E-03 8.29473301E-14 4.20701776E-15
15  4 4.06445642E-01 1.03024026E+00-9.15956335E-01-4.77608630E-13-1.80195299E-14
15  5 5.29363778E-01 5.38013004E-13 2.59228115E-14-7.21958488E-01 1.60466876E-01
15  6 1.58227545E-01-3.18694421E-01 3.45426882E-04 4.57979441E-14 2.31458110E-16
16  1-1.32678640E-14-2.87354002E-14 2.64758316E-14-1.30593697E-01 9.94728132E-01
16  2 1.13000713E-14 1.38481437E-01-1.05480882E+00-1.75889688E-14 1.89241773E-14
16  3-3.19099063E-14 1.29857290E-14 9.32831326E-15 4.86981810E-03-3.70932147E-02
16  4-1.25020974E-14-2.50266113E-14 2.52433061E-14 1.76878450E-02-1.34727981E-01
16  5 5.85536902E-15-3.31100085E-02 2.52198151E-01-7.36734738E-15 1.18078460E-15
16  6 7.37324348E-16-1.91810895E-15-1.15947437E-15 5.36010898E-03-4.08277604E-02
17  1-4.70550524E-01-1.18750581E+00 1.12631866E+00-2.93555628E-13-9.59188709E-14
17  2 3.23423324E-01 3.58042974E-13 5.29122670E-14-4.34858451E-01 2.99000924E-01
17  3-4.69714522E-01 1.70713598E-01 1.18577843E-01-4.24821894E-15-2.03387071E-14
17  4-9.10171353E-02-2.31829635E-01 2.28039088E-01 1.96537603E-13 1.30621119E-13
17  5 1.45268173E-01-2.51629456E-13-1.51597610E-13-1.38845419E-01-6.07213441E-02
17  6-5.87836539E-02 1.19504998E-01-2.98897486E-04 2.95483250E-15-4.54772211E-15
18  1 1.44135513E-13 3.64998492E-13-3.53697781E-13-9.54206299E-01-1.25273763E-01
18  2-1.16123354E-13 1.09080356E+00 1.43207028E-01 1.35521435E-13-8.95380487E-14
18  3 1.47872853E-13-5.83348043E-14-3.52572632E-14 2.84975394E-02 3.74131881E-03
18  4-7.86720082E-15-2.27073625E-14 2.00969345E-14-1.39029538E-02-1.82523488E-03
18  5-1.69914206E-14-8.67996016E-02-1.13955840E-02 6.94501453E-15 6.45186731E-14
18  6 6.35447769E-14-1.28063450E-13 5.47014167E-16 4.80661710E-02 6.31040445E-03
19  1-5.34847824E-02-1.72249186E-01 6.59318402E-02 2.14548259E-14 7.12403269E-15
19  2-6.99332547E-01-9.69495607E-15 2.88268683E-15 5.94774215E-01 1.46007190E-01
19  3 1.04552562E-01-2.50559752E-01 6.39456433E-03-1.58944622E-14 5.65994214E-17
19  4-1.27797237E-01-3.40133274E-01 2.10145797E-01 1.73022007E-13 1.48628859E-14
19  5 5.99907728E-01-1.92859847E-13-1.79070704E-14-6.32103528E-01-8.77845811E-02
19  6-8.64610929E-02 1.74245674E-01-2.04154065E-04-1.12569272E-14-1.70257781E-17
20  1 9.12539371E-15 3.27724312E-14-3.30141116E-14 3.01579851E-02-2.29712416E-01
20  2-4.22142067E-15 1.03698133E-02-7.89865958E-02-1.31087827E-15 1.27162572E-14
20  3-1.68239779E-14 4.10772065E-15 6.07392259E-14 1.09774552E-01-8.36149202E-01
20  4-1.27495488E-14-1.66983304E-14 1.81260285E-14 3.83012964E-02-2.91740211E-01
20  5 4.46924383E-15-5.04257161E-02 3.84091594E-01-9.40722012E-15 1.86308312E-14
20  6-9.06721304E-16-1.77241099E-14-4.78638411E-14 4.79119460E-02-3.64943721E-01
21  1 1.12650653E-14 3.22765744E-14-3.46019017E-14 3.02217408E-02 3.96767943E-03
21  2 3.71611873E-15-1.03691208E-02-1.36133129E-03-1.40769680E-14-4.18882492E-14
21  3 1.54594503E-14 2.64287989E-14 2.38348993E-14 8.80812768E-01 1.15638230E-01
21  4-3.50909643E-14-9.32009915E-14 9.29416519E-14 1.98289590E-01 2.60326429E-02
21  5 4.86048817E-15-2.61130874E-01-3.42828147E-02-1.02632444E-14 6.09978203E-14
21  6 6.52952817E-14-1.26293102E-13 1.04626968E-14 4.23213183E-01 5.55618911E-02
22  1 3.51786564E-13 5.67870684E-13 5.45826574E-13-7.80224331E-16 7.07187158E-16
22  2 2.38715620E-13 1.61154945E-16-1.51163958E-15-6.17421324E-13-1.58106098E-01
22  3 1.58106098E-01 1.09769671E-11 6.83312592E-01-9.93747765E-15 3.04448273E-14
22  4-2.58827656E-13-8.97042963E-13 4.03941038E-13 2.40053203E-15-7.85883164E-15
22  5 4.18285172E-12-2.42285323E-15 7.83204216E-15 7.01547114E-13 1.58106098E-01
22  6-1.58106098E-01 7.18116215E-12-6.83312592E-01-4.10830489E-14 1.33501631E-13
23  1 3.39735988E-04 9.19339849E-04-7.22668730E-04-1.99688139E-17-3.13858085E-17
23  2 3.53517480E-04-7.50635087E-18 1.07163215E-17 5.20859507E-05 6.97072004E-03
23  3 3.17953173E-04-7.28867321E-03 1.02621945E-03 3.91600027E-16 2.55634931E-15
23  4 1.95521033E-04 6.20313993E-04-2.72878058E-04-1.45222370E-16-3.05868614E-16
23  5-1.55624555E-03 1.00882303E-16 1.97638130E-16 9.89239496E-04-8.34376129E-01
23  6 8.38902334E-01-4.52620438E-03-2.58110789E-01-1.14704359E-15-1.17681109E-15
24  1-3.50371802E-13-5.37300099E-13-5.29300653E-13 1.07493744E-15-1.30961103E-17
24  2-1.89947011E-13-4.24130465E-16 5.89959247E-16 6.96611485E-13 1.58028320E-01
24  3-1.58028320E-01-1.33940607E-11-6.82976446E-01 1.02787061E-14 1.78839193E-14
24  4 3.17016566E-13 1.10556645E-12-4.52527627E-13-2.90815760E-15 6.84141440E-16
24  5-4.70438528E-12 3.14816828E-15-1.53678885E-15-3.45029579E-13 1.58028320E-01
24  6-1.58028320E-01-5.53867196E-12-6.82976446E-01 5.23170696E-14-4.24318902E-14
25  1-1.20949805E-15-1.95730023E-15 2.64283343E-15 1.50843878E-03-1.14897328E-02
25  2 1.42461612E-15-1.08732818E-03 8.28214998E-03 1.50346449E-16 1.57358299E-15
25  3 2.22897739E-14-2.38633569E-14 1.17427611E-13-5.19798714E-02 3.95929061E-01
25  4 1.29502922E-15 3.45671662E-15-2.31017779E-15-3.05608660E-04 2.32785546E-03
25  5-5.65188360E-15 2.90307652E-03-2.21126936E-02 4.61569698E-15 1.02225597E-14
25  6-1.30736920E-14 2.85113224E-15-4.20263012E-14 1.19017537E-01-9.06552890E-01
26  1 1.99295812E-15 2.96835687E-15-3.29382975E-15-2.14940301E-02-2.82186233E-03
26  2 8.33777510E-17 1.30891737E-02 1.71842130E-03-1.50853807E-15 9.51998961E-15
26  3-7.79868311E-15-1.72130650E-15-3.73310769E-14 4.29926339E-01 5.64432305E-02
26  4-4.54862579E-15-1.10784797E-14 1.13756307E-14-5.22966877E-03-6.86577781E-04
26  5-3.01800499E-16-1.47343339E-02-1.93441282E-03-7.31769528E-16 5.71463585E-15
26  6-2.42708101E-15-3.28755484E-15-1.17997729E-14-8.90478704E-01-1.16907225E-01
27  1-8.62240390E-03-2.85113542E-02 9.59268297E-03-5.29621179E-16 7.77574787E-16
27  2-3.37079353E-02 2.08167253E-15 1.30886886E-15-7.67251062E-03-8.24430365E-01
27  3-8.60618444E-03 8.33036549E-01-1.25844579E-01-3.11841234E-14-4.27140886E-15
27  4-2.00648913E-02-6.86390936E-02 2.58462866E-02 2.23679001E-14 5.05846541E-15
27  5 1.79640598E-01-2.39710283E-14-5.91547118E-15-1.18993089E-01-4.79037345E-02
27  6-3.32480599E-02 8.11517944E-02-2.26070426E-03-1.23948176E-14-3.55026399E-14
28  1-1.57447202E-14-5.21936903E-14 5.28808081E-14-7.00399983E-02 5.33492463E-01
28  2 9.41151575E-15-5.32965504E-02 4.05958235E-01 2.77077876E-15-3.95272279E-14
28  3 8.29482755E-14-4.34210476E-14 1.01050131E-14 4.46267036E-02-3.39920317E-01
28  4 1.85484411E-14 2.60364060E-14-2.68923490E-14-4.98856769E-02 3.79978286E-01
28  5-1.35746808E-14 6.40898233E-02-4.88170914E-01 1.89016534E-14-9.94027674E-15
28  6-1.93778479E-14 2.93181246E-14-2.37504583E-14 1.97399590E-02-1.50358717E-01
 $END
