 $CONTRL SCFTYP=GVB RUNTYP=ENERGY ICHARG=0 MULT=2 NOSYM=1 ICUT=11
  MAXIT=500 ISPHER=1 $END
 $SYSTEM MWORDS=312 $END
 $SCF NCO=5 NPAIR=2 NSETO=1 NO(1)=1 DIRSCF=.T. $END
 $GUESS GUESS=MOREAD NORB=28 $END
 $DATA
GAMESS inp file produced by MOKIT,nif=28,nbf=28
C1   1
C     6.         0.00000000         0.00000000         0.00000000
   S  8
   1   6.66500000E+03   6.91583963E-04   0.00000000E+00
   2   1.00000000E+03   5.32579615E-03   0.00000000E+00
   3   2.28000000E+02   2.70607210E-02   0.00000000E+00
   4   6.47100000E+01   1.01656846E-01   0.00000000E+00
   5   2.10600000E+01   2.74574824E-01   0.00000000E+00
   6   7.49500000E+00   4.48294319E-01   0.00000000E+00
   7   2.79700000E+00   2.84902611E-01   0.00000000E+00
   8   5.21500000E-01   1.51948592E-02   0.00000000E+00
   S  8
   1   6.66500000E+03  -2.93269653E-04   0.00000000E+00
   2   1.00000000E+03  -2.31803547E-03   0.00000000E+00
   3   2.28000000E+02  -1.14997860E-02   0.00000000E+00
   4   6.47100000E+01  -4.68267270E-02   0.00000000E+00
   5   2.10600000E+01  -1.28466169E-01   0.00000000E+00
   6   7.49500000E+00  -3.01266272E-01   0.00000000E+00
   7   2.79700000E+00  -2.55630702E-01   0.00000000E+00
   8   5.21500000E-01   1.09379336E+00   0.00000000E+00
   S  1
   1   1.59600000E-01   1.00000000E+00   0.00000000E+00
   P  3
   1   9.43900000E+00   5.69792516E-02   0.00000000E+00
   2   2.00200000E+00   3.13207212E-01   0.00000000E+00
   3   5.45600000E-01   7.60376742E-01   0.00000000E+00
   P  1
   1   1.51700000E-01   1.00000000E+00   0.00000000E+00
   D  1
   1   5.50000000E-01   1.00000000E+00   0.00000000E+00

F     9.         0.00000000         0.00000000         2.60000000
   S  8
   1   1.47100000E+04   7.20673709E-04   0.00000000E+00
   2   2.20700000E+03   5.55048697E-03   0.00000000E+00
   3   5.02800000E+02   2.82542077E-02   0.00000000E+00
   4   1.42600000E+02   1.06395828E-01   0.00000000E+00
   5   4.64700000E+01   2.86684201E-01   0.00000000E+00
   6   1.67000000E+01   4.48437966E-01   0.00000000E+00
   7   6.35600000E+00   2.64641181E-01   0.00000000E+00
   8   1.31600000E+00   1.53260610E-02   0.00000000E+00
   S  8
   1   1.47100000E+04  -3.21193890E-04   0.00000000E+00
   2   2.20700000E+03  -2.54619157E-03   0.00000000E+00
   3   5.02800000E+02  -1.26433595E-02   0.00000000E+00
   4   1.42600000E+02  -5.19574917E-02   0.00000000E+00
   5   4.64700000E+01  -1.43447138E-01   0.00000000E+00
   6   1.67000000E+01  -3.32437623E-01   0.00000000E+00
   7   6.35600000E+00  -2.18659068E-01   0.00000000E+00
   8   1.31600000E+00   1.09559041E+00   0.00000000E+00
   S  1
   1   3.89700000E-01   1.00000000E+00   0.00000000E+00
   P  3
   1   2.26700000E+01   6.48340215E-02   0.00000000E+00
   2   4.97700000E+00   3.40535360E-01   0.00000000E+00
   3   1.34700000E+00   7.34646407E-01   0.00000000E+00
   P  1
   1   3.47100000E-01   1.00000000E+00   0.00000000E+00
   D  1
   1   1.64000000E+00   1.00000000E+00   0.00000000E+00

 $END
 $VEC
 1  1 1.91884732E-02-3.46048110E-04-5.53292581E-04-1.03828040E-15 5.52470967E-16
 1  2 1.51311952E-04 1.09409490E-14-2.53897879E-14-6.43315197E-05-1.36784286E-05
 1  3-1.84395478E-05 3.21179764E-05 3.10177098E-06 3.53087685E-15-8.34366580E-15
 1  4-9.99462879E-01 2.01121441E-02 2.43536017E-02 7.14494541E-13-1.69951123E-12
 1  5 1.72529310E-04 4.96700376E-13-1.18134631E-12-1.09701072E-07-1.05476169E-04
 1  6-1.07914823E-04 2.13390992E-04 1.58873234E-06 2.51688634E-16-4.24999337E-16
 2  1 1.00019649E+00-1.50335081E-02-2.22041729E-02-5.70632855E-15-2.80957610E-15
 2  2 1.23777747E-04-2.93745234E-14-3.13902461E-14-2.45421358E-04-2.75497712E-05
 2  3 5.83023567E-05-3.07525855E-05-5.59308934E-05-6.77396453E-15-9.21668471E-15
 2  4 1.90876574E-02-2.20596652E-04 4.34726389E-04-1.35658692E-12-1.87507667E-12
 2  5 5.14014358E-04-9.45856559E-13-1.30505388E-12 1.75852155E-05 3.28051552E-06
 2  6 3.43926878E-06-6.71978430E-06-1.03424480E-07 2.24452024E-16-5.89325623E-17
 3  1 1.74533498E-12-9.91480997E-14-1.16124097E-13-9.80839288E-05 2.17981277E-04
 3  2 2.93397422E-13-4.00119026E-03 8.89222137E-03 2.05318903E-13-2.30875855E-15
 3  3-8.87989058E-16 3.19674761E-15-6.56798403E-16-1.15257496E-03 2.56147562E-03
 3  4-2.68066762E-12 2.24910680E-14 2.08975001E-14-2.81598625E-01 6.25823082E-01
 3  5-3.34194161E-13-1.90560849E-01 4.23501279E-01-2.07979475E-13-8.58278714E-16
 3  6-9.13202176E-16 1.77148089E-15 1.61320176E-17 2.35783933E-05-5.24004850E-05
 4  1 2.95068425E-12-1.50328221E-13-1.85173226E-13 1.35983053E-03 6.11876517E-04
 4  2 1.08630642E-14 1.09576920E-02 4.93058050E-03 6.82697846E-15-6.15975996E-16
 4  3 4.21737329E-16 1.94238667E-16-5.85303387E-16 2.63474465E-03 1.18554348E-03
 4  4-1.07493757E-14 2.31943752E-15 4.70925816E-15 6.25407104E-01 2.81411449E-01
 4  5-5.08348676E-15 4.23842079E-01 1.90714197E-01-4.31627422E-15 8.23843814E-17
 4  6 6.90111166E-17-1.51395498E-16-2.15836011E-17-9.17334611E-05-4.12768700E-05
 5  1-1.77872070E-03-8.82044839E-03-3.61831915E-03 1.19835165E-16-2.54227209E-16
 5  2-2.16106221E-02-2.62395002E-16 8.38807569E-16-1.09225731E-02-7.63408677E-04
 5  3-8.43415423E-04 1.60682410E-03 5.21227456E-05-9.72323165E-17 1.89055795E-16
 5  4 3.87401317E-02 5.12827017E-01 5.68987063E-01-2.32480118E-14 5.01467206E-14
 5  5 2.81147551E-02-1.55331460E-14 3.38281084E-14 1.89949922E-02 7.02187883E-04
 5  6 6.60601197E-04-1.36278908E-03 2.70928693E-05-1.16545291E-16 1.88534801E-16
 6  1 5.46633131E-17-1.77090463E-17-1.69158664E-16-2.77888940E-01 6.17578610E-01
 6  2 6.54272384E-16-1.88603478E-01 4.19151166E-01 1.47422691E-16 1.07487275E-16
 6  3-2.81468392E-17-7.93404358E-17 4.71124381E-17-1.76596970E-04 3.92467981E-04
 6  4 9.50924978E-17 7.52511487E-17-1.34095799E-16 6.84673283E-03-1.52161354E-02
 6  5 7.27917425E-17 5.40293002E-03-1.20074372E-02 5.07787245E-17 1.19226127E-17
 6  6-8.21020432E-18-3.71240834E-18-4.14930387E-18 2.71094777E-04-6.02479303E-04
 7  1 3.13656065E-02 4.97212495E-01 5.80755273E-01 3.07748017E-16 1.61544412E-16
 7  2-2.19086803E-02 1.82562687E-15 2.45844248E-15-1.53128005E-02-1.01660417E-03
 7  3-3.48548081E-08 1.01663902E-03-6.62273914E-04 4.74572666E-16 5.35108684E-16
 7  4-4.09608483E-04-4.53291198E-03-7.61410333E-03 9.02195644E-14 1.49954639E-13
 7  5 1.20270515E-02 6.08456627E-14 1.01089848E-13 8.71212086E-03-3.84494726E-04
 7  6-3.93170277E-04 7.77665003E-04 5.65194300E-06 8.51090134E-19-6.85097147E-18
 8  1 3.70151911E-01 9.19914204E-01-9.08018538E-01 1.82670604E-14 2.09278264E-15
 8  2-6.24069946E-02 4.37748993E-14 1.76542264E-14 7.69392263E-03-6.09392906E-01
 8  3 2.06125553E-01 4.03267353E-01-5.31293474E-01 9.88436853E-15 1.38753011E-14
 8  4-3.30250092E-04 8.78611615E-03 2.20610797E-02-1.68648643E-13-1.72962640E-13
 8  5 4.97620344E-03 1.91166113E-13 1.98499593E-13-8.71353864E-02 4.56258975E-03
 8  6 4.40430310E-03-8.96689285E-03 1.03120495E-04 5.98092406E-15 4.84044036E-15
 9  1 3.22445766E-04 5.32975417E-05-9.16656809E-03 9.30260991E-16 7.31231212E-16
 9  2-4.36414789E-01-2.03418761E-15 6.28770009E-15-3.07162072E-01 2.96457852E-03
 9  3 1.85248012E-03-4.81705864E-03 7.24509207E-04-8.92182607E-16 1.79136038E-15
 9  4-2.32445019E-03-1.37911559E-02 2.87254732E-03-1.79761566E-13 4.17018506E-13
 9  5 4.99454131E-01-1.21437174E-13 2.83344855E-13 3.08956657E-01 7.76241162E-04
 9  6 7.95662168E-04-1.57190333E-03-1.26523849E-05 1.08525779E-17-1.09487582E-16
10  1-1.80154335E-02-6.45517483E-02 2.00857981E-02 1.00243437E-14-1.58802801E-14
10  2-5.09974106E-01 3.54390885E-15 6.41557449E-16-3.52121297E-01 3.12097374E-02
10  3-9.66067495E-03-2.15490625E-02 2.66262316E-02-1.78086785E-14 4.17286122E-14
10  4 1.55192420E-02 5.66385114E-02 8.99687124E-04 2.40376601E-13-5.61781293E-13
10  5-5.15548836E-01-2.70350860E-13 6.39121458E-13-2.96785749E-01-2.19115714E-02
10  6-2.19404344E-02 4.38520058E-02 1.88036237E-05-7.65065183E-15 1.67471935E-14
11  1-1.06491017E-03-1.05858381E-02-7.19375925E-03-1.22472950E-15-1.05241852E-14
11  2-1.80778148E-02-8.37854575E-15-1.03584454E-14-6.07488538E-02-1.25615264E-03
11  3-1.05050735E-02 1.17612261E-02 6.02548133E-03-5.56531362E-15 1.82511218E-15
11  4-2.91210431E-01-7.18187961E-01 7.13771720E-01 6.36047913E-14 1.16322495E-14
11  5-5.72500858E-03-7.37282252E-14-1.47892060E-14-4.80298776E-02 4.42369172E-01
11  6 4.43041528E-01-8.85410700E-01-4.38026258E-04 7.05979074E-15 1.75156320E-15
12  1 6.48873078E-14 2.74011709E-13-2.50283969E-13 6.82363014E-02 3.07039633E-02
12  2 2.84273991E-14 1.67185224E-01 7.52275456E-02-1.91076307E-15 8.15199246E-14
12  3-3.62409183E-14-4.52790063E-14 2.03082494E-14 5.28196388E-02 2.37670096E-02
12  4 3.53718791E-14 1.01967023E-13-9.46435945E-14-8.10879678E-01-3.64867766E-01
12  5-1.20896531E-14 9.12533850E-01 4.10608608E-01 2.18792697E-14-7.51246752E-14
12  6-6.94870378E-14 1.44611713E-13 2.08792825E-15 2.21816963E-02 9.98099569E-03
13  1-4.09137757E-14-1.57973663E-13 1.95817184E-13 1.19914834E-02-2.66497644E-02
13  2 3.67597005E-13 9.53800135E-04-2.11963584E-03 2.19329355E-13 2.78596153E-13
13  3-1.07370322E-13-1.71225831E-13 2.02264103E-13-2.79480184E-02 6.21115247E-02
13  4 6.48264921E-14 1.90219997E-13-2.29748836E-13 3.76014577E-01-8.35652873E-01
13  5 3.05237089E-13-4.28596241E-01 9.52510051E-01 2.20849836E-13-7.97789746E-14
13  6-8.07397704E-14 1.60518745E-13-1.19787175E-15-1.13036427E-02 2.51211549E-02
14  1 2.33687454E-01 5.47414979E-01-6.14783356E-01-6.47279256E-15-4.42572276E-15
14  2 5.96952388E-01-5.91929394E-15-4.58130558E-15-8.45681023E-01 1.54844006E-01
14  3 1.60581111E-02-1.70902117E-01 9.04161509E-02 4.91396893E-15-1.84475137E-14
14  4-4.04509439E-01-9.59176280E-01 1.08408386E+00-3.89542590E-15 2.70123728E-13
14  5 3.54152961E-01 4.68737919E-15-3.07563426E-13-6.14316983E-01-1.54508997E-01
14  6-1.54678904E-01 3.09187901E-01 1.10690507E-04-1.94605745E-15-8.04938203E-15
15  1-9.70439569E-02-2.31496216E-01 2.51542894E-01-9.77605481E-15 1.59067671E-14
15  2-3.68319925E-01-2.87232925E-14-4.37973743E-14 4.63424846E-01-9.39612348E-02
15  3 3.32214443E-03 9.06390904E-02-6.33781172E-02-6.65995162E-15-1.07324858E-14
15  4-3.92974608E-01-9.94569401E-01 9.04754612E-01 1.16475574E-13 7.04229206E-14
15  5-4.69588631E-01-1.32229420E-13-7.99444444E-14 6.55126466E-01-1.64459792E-01
15  6-1.64750466E-01 3.29210258E-01 1.89368152E-04-6.75416665E-15-4.73093942E-15
16  1 1.25152022E-13 3.06036392E-13-2.95617611E-13-9.35418147E-01-4.20905697E-01
16  2-1.07468538E-13 9.48205048E-01 4.26659359E-01 1.28793295E-13 1.17154563E-13
16  3-4.47154135E-14-7.24391496E-14 1.02999692E-13 5.94993630E-03 2.67726394E-03
16  4 3.48899810E-15 6.53811485E-15-1.01119843E-14 7.01513951E-02 3.15657054E-02
16  5-3.71895964E-14-1.25295328E-01-5.63785621E-02 4.29840823E-14 9.76437674E-15
16  6 1.00702967E-14-1.98346734E-14 3.80989411E-17 1.61019077E-02 7.24529920E-03
17  1-4.70652360E-01-1.17916792E+00 1.14160466E+00-1.16904888E-12 1.83800369E-12
17  2 3.80954914E-01 1.23323032E-12-2.12030882E-12-4.48847217E-01-3.94312597E-01
17  3 1.43956756E-01 2.50355841E-01-3.50671394E-01-1.14904425E-14-8.68484483E-15
17  4-2.66770391E-02-6.65740708E-02 7.42768028E-02 1.87167101E-13-2.91927862E-13
17  5 8.01593105E-02-2.74189168E-13 4.31678749E-13-8.47323630E-02-2.00634848E-02
17  6-2.02317666E-02 4.02952514E-02 1.09632139E-04 1.62682567E-14-3.41796362E-14
18  1 1.04966272E-12 2.62720368E-12-2.54402702E-12-3.96660515E-01 8.81535811E-01
18  2-8.47640444E-13 4.47508278E-01-9.94539546E-01 9.96667654E-13 8.93931229E-13
18  3-3.23548933E-13-5.70382296E-13 7.95777900E-13 2.69869393E-03-5.99755819E-03
18  4 7.30801246E-14 1.79113306E-13-1.95170245E-13 1.48114126E-02-3.29168192E-02
18  5-1.63164577E-13-3.84238275E-02 8.53929017E-02 1.67508433E-13 4.07823736E-14
18  6 4.12099640E-14-8.19923376E-14-1.67203549E-16 7.87788149E-03-1.75077529E-02
19  1-7.86236822E-02-2.21532763E-01 1.59502676E-01-1.38951218E-14-1.80966187E-14
19  2-5.86891431E-01-1.47542688E-15 1.00937125E-14 5.31607577E-01-1.62567987E-02
19  3 9.70434661E-02-8.07866674E-02-7.38127882E-02-4.19712734E-15-4.74137000E-15
19  4-7.57394598E-02-2.08883027E-01 1.30597718E-01-2.11519834E-15-4.47956127E-14
19  5 6.81789761E-01 2.14715976E-15 4.97146807E-14-7.13336284E-01-4.56479202E-02
19  6-4.57870691E-02 9.14349893E-02 9.06525878E-05-2.35219606E-15-6.89008478E-16
20  1-1.12621153E-15-8.78465691E-16 2.89027378E-16-4.70383909E-03 1.04537886E-02
20  2-1.86932812E-15 3.36310434E-03-7.47414553E-03 1.77099663E-15 1.76462677E-13
20  3-1.71023688E-13-5.43898918E-15-2.05582986E-13-3.85032382E-01 8.55693742E-01
20  4-5.47355301E-15-1.30945621E-14 1.27569403E-14-3.05642126E-02 6.79257621E-02
20  5 2.19738429E-15 3.95731340E-02-8.79471397E-02-9.33046477E-16 6.05898966E-15
20  6-3.47789404E-16-5.71120026E-15-8.69604562E-15-1.38929290E-01 3.08755655E-01
21  1-1.11865137E-14-3.63382271E-14 3.46666204E-14 3.07906299E-02 1.38547140E-02
21  2-4.06182101E-16 7.02967918E-03 3.16311282E-03 6.45175193E-16 2.58957669E-13
21  3-2.04283496E-13-5.46741732E-14-2.74895766E-13 8.45875484E-01 3.80614504E-01
21  4-2.91924149E-15-7.92549802E-15 7.41483362E-15 6.65594670E-02 2.99494539E-02
21  5-1.42201058E-15-8.73971098E-02-3.93256684E-02 1.22514706E-15-2.63722759E-14
21  6 3.49603645E-14-8.58808860E-15 2.37743419E-14 3.33525645E-01 1.50074928E-01
22  1-8.83663979E-13-1.25307170E-11-1.10662498E-11 2.51232967E-15 8.08699763E-15
22  2-3.78329484E-13 1.41370160E-15-3.62815164E-15 7.65458325E-14-4.58307735E-01
22  3 4.58307735E-01-2.81514293E-11 4.68991792E-01 1.46034665E-13 5.64266198E-14
22  4 3.82731606E-13 1.46020743E-12-2.59673608E-13-4.69275263E-15-8.62609145E-15
22  5-7.26878078E-12 3.41907228E-15 9.19402811E-15-1.95355374E-14 4.58307735E-01
22  6-4.58307735E-01-7.80139667E-12-4.68991792E-01 1.40738061E-13 7.27819672E-13
23  1-2.40095127E-05-6.61455691E-05 5.15696434E-05-4.53211242E-16-9.11136029E-16
23  2-7.11967577E-05 4.00414412E-17 4.45770439E-16 3.61613891E-05-5.32518919E-04
23  3-1.92394196E-03 2.45646088E-03 9.06483503E-04 1.40455254E-14 2.57161334E-14
23  4-1.80540223E-05-4.38356181E-05 3.95832860E-05 2.49479076E-16 3.74776748E-16
23  5 2.56920960E-04-4.95615227E-16-7.70876007E-16-1.96924694E-04-5.74766074E-01
23  6 5.74003041E-01 7.63032649E-04-7.48399410E-01-4.28390386E-14-8.61690269E-14
24  1 8.83203828E-13 1.25254299E-11 1.10650238E-11-1.98866896E-15-1.00338800E-14
24  2 3.68769214E-13-1.65533645E-15 4.80938266E-15-7.49220715E-14 4.58294346E-01
24  3-4.58294346E-01 2.85066816E-11-4.68978092E-01-9.32157334E-14 2.68981986E-14
24  4-3.84639197E-13-1.47766179E-12 2.53599295E-13 3.51788931E-15 8.87599868E-15
24  5 7.30823935E-12-2.76952932E-15-1.06599973E-14-2.26224906E-16 4.58294346E-01
24  6-4.58294346E-01 8.04119129E-12-4.68978092E-01-1.05319528E-13-9.16381017E-13
25  1-5.62639227E-16-3.31931108E-15 3.24695501E-15-1.15550946E-02-5.19939129E-03
25  2 3.54987573E-16 5.44156366E-04 2.44851387E-04-1.98016834E-16-3.43892760E-13
25  3 3.50880215E-13-6.98745501E-15 3.48683098E-13 3.34639866E-01 1.50576317E-01
25  4-5.62323901E-17-1.14583166E-16 8.47081024E-17 7.79048271E-04 3.50545798E-04
25  5-4.35548555E-16-5.27956626E-03-2.37562266E-03 2.74601854E-16 1.70674183E-14
25  6-6.12620193E-15-1.09412164E-14 9.20234034E-14-8.48069622E-01-3.81601878E-01
26  1 1.18348808E-16 4.26464292E-16-2.62305101E-16-4.20460256E-03 9.34428270E-03
26  2 6.51857731E-16 2.51705326E-03-5.59388263E-03-4.75380315E-16 6.16799552E-13
26  3-6.00102259E-13-1.66972937E-14-6.35384217E-13 1.39250670E-01-3.09469822E-01
26  4 6.37539382E-16 1.73216860E-15-1.57499099E-15 1.27462947E-04-2.83275402E-04
26  5-2.14389923E-15-2.08531886E-03 4.63440234E-03 1.46168762E-15 5.38473112E-14
26  6-5.09307021E-14-2.91660916E-15-1.38334318E-13-3.85880457E-01 8.57578309E-01
27  1 2.45084780E-03 8.56318359E-03-2.98969759E-03 1.54354589E-15 4.32221198E-16
27  2 1.68195983E-02 6.77014463E-16 4.38955060E-16-4.65082412E-03 1.46576507E-01
27  3 7.13634101E-01-8.60210608E-01-3.69426340E-01-5.27120308E-14-3.15332046E-14
27  4 5.70514775E-03 2.05864218E-02-6.41193328E-03 5.06770205E-15 2.27339116E-15
27  5-8.85195890E-02-5.17300534E-15-2.15286968E-15 6.39460388E-02 1.62644597E-02
27  6 1.94476766E-02-3.57121363E-02-2.07380021E-03-3.75366821E-15-2.75613828E-14
28  1-3.25336247E-14-1.12498058E-13 1.06431878E-13 5.27890923E-01 2.37532596E-01
28  2-1.20264455E-15 4.87600035E-01 2.19403094E-01 2.59975035E-15-4.12770255E-15
28  3 6.50771369E-15-2.38001114E-15 2.59240147E-14-3.95276071E-02-1.77860549E-02
28  4-1.07227221E-14-2.97441694E-14 2.54722739E-14 1.94662534E-01 8.75914267E-02
28  5 9.01658487E-15-2.57106480E-01-1.15689038E-01-4.29120528E-15 1.95570041E-14
28  6 1.62464102E-14-3.58034143E-14-1.15811136E-15-2.22670863E-02-1.00194175E-02
 $END
