 $CONTRL SCFTYP=GVB RUNTYP=ENERGY ICHARG=0 MULT=2 NOSYM=1 ICUT=11
  MAXIT=500 ISPHER=1 $END
 $SYSTEM MWORDS=312 $END
 $SCF NCO=5 NPAIR=2 NSETO=1 NO(1)=1 DIRSCF=.T. $END
 $GUESS GUESS=MOREAD NORB=28 $END
 $DATA
GAMESS inp file produced by MOKIT,nif=28,nbf=28
C1   1
C     6.         0.00000000         0.00000000         0.00000000
   S  8
   1   6.66500000E+03   6.91583963E-04   0.00000000E+00
   2   1.00000000E+03   5.32579615E-03   0.00000000E+00
   3   2.28000000E+02   2.70607210E-02   0.00000000E+00
   4   6.47100000E+01   1.01656846E-01   0.00000000E+00
   5   2.10600000E+01   2.74574824E-01   0.00000000E+00
   6   7.49500000E+00   4.48294319E-01   0.00000000E+00
   7   2.79700000E+00   2.84902611E-01   0.00000000E+00
   8   5.21500000E-01   1.51948592E-02   0.00000000E+00
   S  8
   1   6.66500000E+03  -2.93269653E-04   0.00000000E+00
   2   1.00000000E+03  -2.31803547E-03   0.00000000E+00
   3   2.28000000E+02  -1.14997860E-02   0.00000000E+00
   4   6.47100000E+01  -4.68267270E-02   0.00000000E+00
   5   2.10600000E+01  -1.28466169E-01   0.00000000E+00
   6   7.49500000E+00  -3.01266272E-01   0.00000000E+00
   7   2.79700000E+00  -2.55630702E-01   0.00000000E+00
   8   5.21500000E-01   1.09379336E+00   0.00000000E+00
   S  1
   1   1.59600000E-01   1.00000000E+00   0.00000000E+00
   P  3
   1   9.43900000E+00   5.69792516E-02   0.00000000E+00
   2   2.00200000E+00   3.13207212E-01   0.00000000E+00
   3   5.45600000E-01   7.60376742E-01   0.00000000E+00
   P  1
   1   1.51700000E-01   1.00000000E+00   0.00000000E+00
   D  1
   1   5.50000000E-01   1.00000000E+00   0.00000000E+00

F     9.         0.00000000         0.00000000         1.80000000
   S  8
   1   1.47100000E+04   7.20673709E-04   0.00000000E+00
   2   2.20700000E+03   5.55048697E-03   0.00000000E+00
   3   5.02800000E+02   2.82542077E-02   0.00000000E+00
   4   1.42600000E+02   1.06395828E-01   0.00000000E+00
   5   4.64700000E+01   2.86684201E-01   0.00000000E+00
   6   1.67000000E+01   4.48437966E-01   0.00000000E+00
   7   6.35600000E+00   2.64641181E-01   0.00000000E+00
   8   1.31600000E+00   1.53260610E-02   0.00000000E+00
   S  8
   1   1.47100000E+04  -3.21193890E-04   0.00000000E+00
   2   2.20700000E+03  -2.54619157E-03   0.00000000E+00
   3   5.02800000E+02  -1.26433595E-02   0.00000000E+00
   4   1.42600000E+02  -5.19574917E-02   0.00000000E+00
   5   4.64700000E+01  -1.43447138E-01   0.00000000E+00
   6   1.67000000E+01  -3.32437623E-01   0.00000000E+00
   7   6.35600000E+00  -2.18659068E-01   0.00000000E+00
   8   1.31600000E+00   1.09559041E+00   0.00000000E+00
   S  1
   1   3.89700000E-01   1.00000000E+00   0.00000000E+00
   P  3
   1   2.26700000E+01   6.48340215E-02   0.00000000E+00
   2   4.97700000E+00   3.40535360E-01   0.00000000E+00
   3   1.34700000E+00   7.34646407E-01   0.00000000E+00
   P  1
   1   3.47100000E-01   1.00000000E+00   0.00000000E+00
   D  1
   1   1.64000000E+00   1.00000000E+00   0.00000000E+00

 $END
 $VEC
 1  1 9.07215989E-02-1.08148176E-03-2.38765850E-03-4.65508126E-11 2.30989656E-10
 1  2 8.15772629E-04-7.08694661E-11 3.51578196E-10-4.17900395E-04 5.76586990E-05
 1  3 4.19119077E-05-9.95706067E-05 3.82180484E-06-2.12976974E-11 1.05653653E-10
 1  4-9.95851095E-01 1.99497344E-02 2.64487342E-02-7.22160016E-10 3.58220683E-09
 1  5 2.10664868E-03-5.29308645E-10 2.62543422E-09 7.99482384E-05-1.39954192E-04
 1  6-1.06390638E-04 2.46344830E-04-8.14599979E-06 5.51581271E-12-2.73209730E-11
 2  1 9.95644834E-01-1.58969280E-02-1.97313965E-02-4.58193260E-10 2.27232909E-09
 2  2 2.72395362E-03-6.64605537E-10 3.29574892E-09 7.16888283E-04 1.51692211E-04
 2  3-1.12594942E-04-3.90972695E-05 6.41434766E-05-2.09979573E-10 1.04112277E-09
 2  4 9.09290925E-02 2.33722517E-03 3.88586082E-03-7.12264438E-09 3.53089884E-08
 2  5 2.40668708E-03-5.23468161E-09 2.59501074E-08 1.96261463E-03 1.78190485E-04
 2  6 1.76087568E-04-3.54278053E-04 5.10385577E-07 6.39082498E-11-3.16874299E-10
 3  1 4.14875700E-12-3.05623318E-13-2.85383566E-13 3.38070057E-02 6.81689541E-03
 3  2-4.49425160E-12 3.90868737E-02 7.88153579E-03-3.34473608E-12-5.76758065E-12
 3  3 5.93699219E-12-1.69411533E-13 1.59550908E-11 1.40525194E-02 2.83357113E-03
 3  4 6.06576576E-13 4.21768157E-13 1.24890850E-12 6.53888704E-01 1.31851102E-01
 3  5-2.69331183E-12 4.64202734E-01 9.36025376E-02-1.53725147E-12-1.96282815E-11
 3  6 1.97157403E-11-8.74587816E-14 5.39366072E-11-6.15720612E-03-1.24154830E-03
 4  1-5.54496657E-08-4.06010753E-10-9.36823000E-10-9.18692738E-03 4.55606958E-02
 4  2 7.38566312E-10-1.18301701E-02 5.86693202E-02 3.97088742E-10-2.85610400E-10
 4  3-1.00523750E-10 3.86134150E-10-4.49142778E-11-3.33293855E-03 1.65290303E-02
 4  4 4.08767694E-10-2.34708246E-11 7.58732070E-10-1.30462778E-01 6.47003594E-01
 4  5-1.16532675E-08-9.37238999E-02 4.64804606E-01-8.51044453E-09-1.07682182E-10
 4  6-1.03060759E-11 1.17988258E-10-2.36769032E-11 1.37372088E-03-6.81268905E-03
 5  1-1.27543569E-02-2.88843353E-02-1.36376060E-02-4.55357340E-10 2.26076586E-09
 5  2-4.56912111E-02-3.78900124E-10 1.88244015E-09-2.59221660E-02-8.24334692E-04
 5  3 6.99127548E-05 7.54421937E-04-2.17037191E-04 1.48307382E-11-7.35666108E-11
 5  4 3.52369568E-02 4.93597286E-01 5.73695388E-01-2.78805707E-10 1.38276484E-09
 5  5 1.44752362E-01-2.26661423E-10 1.12460138E-09 1.03558808E-01 1.04796666E-03
 5  6 1.16862450E-03-2.21659116E-03-2.92841073E-05 2.11241578E-11-1.05072240E-10
 6  1 1.60161079E-12 9.78492762E-12 3.85195394E-12 7.06072562E-01 1.42373540E-01
 6  2 1.21911008E-11 4.05502637E-01 8.17661658E-02 5.54685812E-12-1.56766292E-09
 6  3 1.56911409E-09-1.45117654E-12 4.31242860E-09 1.05958597E-03 2.13656521E-04
 6  4 1.54905802E-13-1.18837936E-12-3.90901239E-12-8.75714804E-02-1.76580460E-02
 6  5 5.16439725E-12-8.26415929E-02-1.66639759E-02 5.00497772E-12 5.74498481E-12
 6  6-5.87740686E-12 1.32422055E-13-1.60020377E-11-3.64251873E-03-7.34482992E-04
 7  1 4.42318695E-02 5.27123138E-01 5.45202557E-01 1.42685800E-10-7.36527483E-10
 7  2-1.15964360E-01 1.97013614E-10-9.95627705E-10-8.84295041E-02 3.59975995E-03
 7  3 1.79519604E-03-5.39495599E-03 4.37974410E-04 4.32070387E-11-2.14560927E-10
 7  4 3.37868434E-04-1.11052503E-02-3.28241458E-02-3.15343831E-10 1.56327084E-09
 7  5 2.98460280E-02-2.07699186E-10 1.03037436E-09 3.70368319E-02-1.75797415E-03
 7  6-1.58170328E-03 3.33967743E-03-4.27815980E-05 1.13456941E-12-5.41274377E-12
 8  1 3.25071049E-01 7.68679358E-01-8.82904670E-01-1.39129347E-07 6.90081633E-07
 8  2-2.75594781E-01-5.07814505E-08 2.51734886E-07-7.12274663E-03 6.45592872E-01
 8  3-6.87027697E-01 4.14348252E-02 3.23431982E-01 2.72864065E-08-1.35253529E-07
 8  4-2.30750065E-02-1.96332297E-02 1.74509509E-01-8.41823513E-09 4.17795640E-08
 8  5 1.22489774E-02 3.93983541E-08-1.95422369E-07-2.32154395E-01 1.06691968E-02
 8  6 1.11412771E-02-2.18104739E-02-1.14575631E-04 4.94512321E-09-2.45342489E-08
 9  1-4.74694461E-03-4.19688637E-02 1.41949268E-02-2.02395085E-09 1.00419097E-08
 9  2-3.04441608E-01-1.47462131E-09 7.32241804E-09-1.73910253E-01 1.37006310E-02
 9  3 1.57624574E-02-2.94630884E-02-5.00412931E-04 8.14361790E-11-4.03683164E-10
 9  4-4.04602861E-03-8.50619389E-02-7.06680264E-02-1.72900507E-09 8.56878882E-09
 9  5 5.22694024E-01-1.24533523E-09 6.17465801E-09 3.85207194E-01 6.81003060E-03
 9  6 6.48705780E-03-1.32970884E-02 7.83867029E-05 2.94043264E-11-1.46373837E-10
10  1-5.99202917E-02-2.34753589E-01 2.83674306E-02 1.17592983E-08-5.84225051E-08
10  2-5.84836164E-01 1.40776236E-09-6.74754639E-09-3.63050787E-01-8.54095906E-02
10  3 1.33291923E-01-4.78823328E-02-5.30796730E-02-3.62485864E-09 1.79318492E-08
10  4 7.70903166E-02 2.65843670E-01-1.06151115E-02 4.26092297E-09-2.11408260E-08
10  5-5.36840525E-01-4.79180258E-09 2.36936775E-08-1.28829080E-01-8.81285837E-02
10  6-7.59442653E-02 1.64072849E-01-2.95717949E-03-2.69176836E-09 1.33493154E-08
11  1-2.83877991E-02-1.28442302E-01-7.85538043E-02 7.39356707E-09-3.66466949E-08
11  2-1.44120858E-01-2.31433514E-09 1.14885225E-08-3.01716432E-01-5.91262147E-02
11  3 8.22393560E-03 5.09022791E-02-1.63461327E-02-7.10408553E-11 3.51265206E-10
11  4-3.22678728E-01-7.62711570E-01 9.03862789E-01-2.38477000E-09 1.19087692E-08
11  5 8.45740556E-02 2.74896246E-09-1.37396389E-08-3.48440515E-01 4.42739565E-01
11  6 3.78987864E-01-8.21727429E-01 1.54727755E-02 1.08421701E-08-5.40011495E-08
12  1-1.94118188E-07-4.61031787E-07 5.23797015E-07-9.86616382E-02 4.89290468E-01
12  2 1.76477945E-07-9.31045149E-02 4.61735183E-01-3.62203953E-08-4.32644398E-07
12  3 4.72104838E-07-3.94604396E-08-2.19581144E-07-2.72071331E-02 1.34927727E-01
12  4 1.23873373E-08 1.26489936E-08-8.56098690E-08 9.53045628E-02-4.72642528E-01
12  5-4.13862803E-08-6.13216122E-02 3.04110625E-01 1.33404419E-07 5.09233094E-09
12  6 1.06328737E-08-1.57252046E-08-1.33906593E-09-1.55181433E-02 7.69583589E-02
13  1 1.45846310E-11 3.14342997E-11-4.23574136E-11 7.41579038E-01 1.49532462E-01
13  2 7.21936817E-11-9.51959424E-01-1.91955170E-01-1.24522651E-10-9.85040329E-09
13  3 9.86759652E-09-1.71932250E-11 2.70372589E-08 2.07437204E-01 4.18277683E-02
13  4 1.70820333E-11 5.25696194E-11 2.82903690E-12-3.90371369E-01-7.87144132E-02
13  5-3.73276308E-11 5.63815900E-01 1.13688282E-01-4.24614924E-12-4.06933739E-09
13  6 4.10984653E-09-4.05091384E-11 1.12712301E-08 2.91204393E-01 5.87187893E-02
14  1 4.07943988E-01 8.47901306E-01-1.40262757E+00 2.63401460E-08-1.30811912E-07
14  2 3.51112006E-01-4.94269806E-09 2.47349666E-08-1.28389537E+00 2.00409259E-01
14  3 4.50618796E-01-6.51028055E-01-6.07267879E-02-2.73627585E-09 1.35554670E-08
14  4-4.88336378E-01-1.03822631E+00 1.82639410E+00 2.14168747E-08-1.06194766E-07
14  5 2.85029361E-01-2.54036979E-08 1.25931228E-07-9.82897708E-01-1.76721069E-01
14  6-1.61812475E-01 3.38533544E-01-3.61837122E-03-4.57284125E-09 2.27282396E-08
15  1-1.30834964E-01-3.61706540E-01 1.41608941E-01-1.09147820E-08 5.41204027E-08
15  2-4.69647720E-02 3.72294018E-09-1.84238685E-08-2.63335709E-01 1.41111419E-01
15  3 6.79405097E-02-2.09051929E-01 1.77588526E-02-2.98986321E-10 1.51871723E-09
15  4 2.86007601E-01 7.44664194E-01-5.92358298E-01-7.54960676E-09 3.75573497E-08
15  5 7.29264129E-01 8.84647746E-09-4.40163923E-08-1.00032870E+00 4.32678999E-02
15  6 3.37611186E-02-7.70290185E-02 2.30733125E-03 1.97381309E-09-9.81930980E-09
16  1-4.10677132E-07-1.05584064E-06 9.14500793E-07-1.61431730E-01 8.00585665E-01
16  2-1.43780953E-07 2.15875350E-01-1.07058712E+00-3.48257605E-08 3.89265855E-07
16  3-1.69989265E-07-2.19276590E-07 1.35732216E-07 3.81389417E-02-1.89142900E-01
16  4-3.08037930E-07-7.65272946E-07 6.91582444E-07 7.54722789E-02-3.74288322E-01
16  5 1.25730668E-07-1.25734630E-01 6.23553739E-01-1.85794283E-07-1.76819262E-07
16  6-1.51061269E-07 3.27880531E-07-6.25280576E-09 1.61734347E-02-8.02096711E-02
17  1 4.12878019E-01 1.06105354E+00-9.17227400E-01-6.83807806E-08 3.38872108E-07
17  2 1.96338288E-01 1.91633480E-07-9.50038879E-07-2.67859279E-02-4.18455206E-01
17  3 1.84569806E-01 2.33885400E-01-1.46356419E-01 5.18887630E-08-2.57276603E-07
17  4 3.10193683E-01 7.72971125E-01-6.80646306E-01 1.56004755E-07-7.73466464E-07
17  5-1.50779305E-01-2.21797621E-07 1.09966881E-06 2.08913374E-01 1.92006948E-01
17  6 1.62194230E-01-3.54201178E-01 7.23565796E-03 2.05095488E-08-1.01753577E-07
18  1 1.75577752E-01 4.15933212E-01-5.11908555E-01 1.19110287E-07-5.90621851E-07
18  2-8.59113264E-01-2.43315302E-08 1.20414947E-07 8.36103688E-01-1.64197432E-01
18  3 3.43815533E-01-1.79618101E-01-1.23296641E-01 3.95695537E-08-1.96616353E-07
18  4-1.18247945E-01-3.02426199E-01 1.38762010E-01 1.35068150E-07-6.70754865E-07
18  5 2.96869914E-01-1.62644140E-07 8.07712057E-07-3.75328008E-01-7.17093238E-02
18  6-7.30383572E-02 1.44747681E-01 3.22561355E-04 4.75704930E-09-2.36808436E-08
19  1 2.46270419E-11 5.62150423E-11-7.52906898E-11 3.57062287E-01 7.19987342E-02
19  2-1.53826220E-10-2.88414592E-01-5.81562814E-02 1.43158961E-10-9.96324185E-10
19  3 1.04428976E-09-4.79655742E-11 2.63014576E-09 3.08087698E-01 6.21233167E-02
19  4-3.33133057E-11-8.32478601E-11 5.63972817E-11 8.20321359E-01 1.65410782E-01
19  5 3.48151527E-11-9.14344423E-01-1.84369780E-01-5.25462651E-11-6.14131696E-10
19  6 5.62692684E-10 5.14390118E-11 1.61943313E-09 6.19894768E-02 1.24996704E-02
20  1 3.37718413E-07 8.29624046E-07-8.67071050E-07-1.32225528E-01 6.55747859E-01
20  2-5.27604411E-07 4.27385300E-02-2.11956024E-01 5.57717729E-07-6.45934649E-07
20  3 7.76641848E-07-1.30707199E-07-3.45262075E-07-7.08592326E-02 3.51412513E-01
20  4-7.39168326E-09-1.25457257E-08-2.49061303E-08-1.36095141E-01 6.74934566E-01
20  5 1.54828188E-07 1.64432564E-01-8.15467665E-01-2.26398110E-07 1.89464008E-08
20  6-3.70536989E-09-1.52410309E-08 5.50061469E-09-1.56902025E-02 7.78133133E-02
21  1-7.74545455E-12-1.84650673E-11 1.80665487E-11-4.09087609E-01-8.24888093E-02
21  2-5.28015889E-11 5.28055192E-01 1.06478078E-01 6.33847867E-11-1.41364878E-08
21  3 1.41479186E-08-1.14307898E-11 3.88425800E-08 6.21709390E-01 1.25362485E-01
21  4-1.21545274E-11-3.30836255E-11 1.07993859E-11-2.37175492E-02-4.78268052E-03
21  5 1.52738065E-11-1.32712186E-01-2.67601362E-02-1.11342063E-11-5.29188962E-09
21  6 5.31503326E-09-2.31436466E-11 1.46180951E-08 6.67385770E-01 1.34572714E-01
22  1-2.82859569E-14-8.21676930E-12-5.50230106E-12-4.07378251E-09-8.23728392E-10
22  2-1.49559036E-11 6.28824703E-10 1.24285197E-10-2.20770230E-12-2.37927160E-01
22  3 2.37927160E-01-1.17241054E-10 6.53546229E-01-1.27528296E-08-2.56186744E-09
22  4 1.13194817E-11 3.68330317E-11-1.19981523E-11 4.50737471E-09 9.05997571E-10
22  5-6.34327564E-11-3.20932380E-09-6.44024968E-10 1.81071528E-11 2.37927160E-01
22  6-2.37927160E-01-1.48196972E-11-6.53546229E-01-1.73926502E-08-3.48816520E-09
23  1-4.62141241E-09-9.10966434E-09 2.22952863E-08-2.30229262E-02 1.14178436E-01
23  2 1.21292627E-08-2.49456963E-02 1.23711913E-01 3.68783173E-08-1.04334303E-07
23  3 3.60708582E-07-2.56374279E-07-1.12750945E-07 8.06147054E-02-3.99791978E-01
23  4 1.38552244E-08 4.37333246E-08-2.36020576E-08-2.47813746E-02 1.22897678E-01
23  5-7.05827046E-08 2.89784575E-02-1.43712040E-01 3.96161678E-08 7.40592002E-07
23  6-7.91663149E-07 5.10711472E-08 3.71968095E-07 1.75110305E-01-8.68423499E-01
24  1 1.82609036E-03 4.13674223E-03-7.80969121E-03-2.21310576E-08 1.09781445E-07
24  2-3.13787311E-03-2.31785582E-08 1.14920862E-07-7.20835079E-03-5.72206726E-02
24  3-3.85168529E-02 9.57375255E-02-4.53948667E-03 7.49415870E-08-3.71602808E-07
24  4-6.62730165E-03-2.07671543E-02 9.83376553E-03-2.42556139E-08 1.20274747E-07
24  5 3.24783362E-02 2.85241058E-08-1.41443757E-07-1.70866990E-02-7.82598247E-01
24  6 8.05420299E-01-2.28220526E-02-3.85418023E-01 1.73221299E-07-8.58934873E-07
25  1 8.63211442E-13 1.08719125E-11 8.37245458E-12 8.71496558E-09 1.77582844E-09
25  2 1.73244372E-11-6.03062794E-09-1.19624202E-09 1.58914492E-11 2.36698670E-01
25  3-2.36698670E-01-3.60360890E-11-6.50171771E-01 2.95313864E-08 5.91256886E-09
25  4-5.91023419E-13-3.01786837E-12-3.68541221E-12-9.40766297E-09-1.88249047E-09
25  5 1.23538005E-11 7.64755376E-09 1.52203567E-09 7.50677636E-12 2.36698670E-01
25  6-2.36698670E-01 4.66228751E-11-6.50171771E-01 3.92602275E-08 7.79357721E-09
26  1 7.19561914E-03 2.50538122E-02 1.07573409E-02 7.47345885E-09-3.71825554E-08
26  2 1.34487854E-02 8.61649130E-09-4.26297877E-08 9.07084055E-02 5.36144286E-01
26  3 3.59337582E-01-8.95481868E-01 4.29116464E-02-3.21759796E-08 1.60086694E-07
26  4 5.45017289E-02 1.75632314E-01-7.36347336E-02 6.49679534E-09-3.23127109E-08
26  5-2.73905918E-01-6.53638395E-09 3.24347669E-08 1.17660449E-01 4.00481038E-02
26  6 1.89442873E-01-2.29490977E-01-3.62586675E-02-9.04418614E-09 4.42005772E-08
27  1 1.44099975E-12 4.84167090E-12 7.32012661E-13 3.87564858E-02 7.81491483E-03
27  2 2.14876640E-12-1.76438734E-02-3.55773976E-03 1.36976121E-11-1.53246495E-09
27  3 1.67465906E-09-1.42194104E-10 4.47344861E-09-6.84186529E-01-1.37960428E-01
27  4 7.71283423E-12 2.56805303E-11-9.00048746E-12 1.35908740E-01 2.74048511E-02
27  5-4.21648046E-11-5.57056428E-02-1.12325739E-02 1.60406258E-11-5.33108360E-10
27  6 6.02401941E-10-6.92935812E-11 1.54420815E-09 6.55916198E-01 1.32259951E-01
28  1 9.70664945E-09 2.10024095E-08-3.24676718E-08 2.88784437E-02-1.43217288E-01
28  2-1.73582265E-08 2.16236598E-02-1.07237450E-01-2.38394530E-08 1.92998042E-07
28  3-3.49435323E-07 1.56437281E-07 1.31658963E-07-1.63217900E-01 8.09445685E-01
28  4-5.71490861E-09-1.87717608E-08 1.09781138E-08 3.30435351E-02-1.63872370E-01
28  5 3.57351657E-08-2.38235855E-02 1.18147795E-01-2.07355714E-08-1.75874417E-09
28  6-5.43432349E-08 5.61019791E-08 1.27719399E-08 8.82873567E-02-4.37843274E-01
 $END
