 $CONTRL SCFTYP=GVB RUNTYP=ENERGY ICHARG=0 MULT=2 NOSYM=1 ICUT=11
  MAXIT=500 ISPHER=1 $END
 $SYSTEM MWORDS=312 $END
 $SCF NCO=5 NPAIR=2 NSETO=1 NO(1)=1 DIRSCF=.T. $END
 $GUESS GUESS=MOREAD NORB=28 $END
 $DATA
GAMESS inp file produced by MOKIT,nif=28,nbf=28
C1   1
C     6.         0.00000000         0.00000000         0.00000000
   S  8
   1   6.66500000E+03   6.91583963E-04   0.00000000E+00
   2   1.00000000E+03   5.32579615E-03   0.00000000E+00
   3   2.28000000E+02   2.70607210E-02   0.00000000E+00
   4   6.47100000E+01   1.01656846E-01   0.00000000E+00
   5   2.10600000E+01   2.74574824E-01   0.00000000E+00
   6   7.49500000E+00   4.48294319E-01   0.00000000E+00
   7   2.79700000E+00   2.84902611E-01   0.00000000E+00
   8   5.21500000E-01   1.51948592E-02   0.00000000E+00
   S  8
   1   6.66500000E+03  -2.93269653E-04   0.00000000E+00
   2   1.00000000E+03  -2.31803547E-03   0.00000000E+00
   3   2.28000000E+02  -1.14997860E-02   0.00000000E+00
   4   6.47100000E+01  -4.68267270E-02   0.00000000E+00
   5   2.10600000E+01  -1.28466169E-01   0.00000000E+00
   6   7.49500000E+00  -3.01266272E-01   0.00000000E+00
   7   2.79700000E+00  -2.55630702E-01   0.00000000E+00
   8   5.21500000E-01   1.09379336E+00   0.00000000E+00
   S  1
   1   1.59600000E-01   1.00000000E+00   0.00000000E+00
   P  3
   1   9.43900000E+00   5.69792516E-02   0.00000000E+00
   2   2.00200000E+00   3.13207212E-01   0.00000000E+00
   3   5.45600000E-01   7.60376742E-01   0.00000000E+00
   P  1
   1   1.51700000E-01   1.00000000E+00   0.00000000E+00
   D  1
   1   5.50000000E-01   1.00000000E+00   0.00000000E+00

F     9.         0.00000000         0.00000000         2.00000000
   S  8
   1   1.47100000E+04   7.20673709E-04   0.00000000E+00
   2   2.20700000E+03   5.55048697E-03   0.00000000E+00
   3   5.02800000E+02   2.82542077E-02   0.00000000E+00
   4   1.42600000E+02   1.06395828E-01   0.00000000E+00
   5   4.64700000E+01   2.86684201E-01   0.00000000E+00
   6   1.67000000E+01   4.48437966E-01   0.00000000E+00
   7   6.35600000E+00   2.64641181E-01   0.00000000E+00
   8   1.31600000E+00   1.53260610E-02   0.00000000E+00
   S  8
   1   1.47100000E+04  -3.21193890E-04   0.00000000E+00
   2   2.20700000E+03  -2.54619157E-03   0.00000000E+00
   3   5.02800000E+02  -1.26433595E-02   0.00000000E+00
   4   1.42600000E+02  -5.19574917E-02   0.00000000E+00
   5   4.64700000E+01  -1.43447138E-01   0.00000000E+00
   6   1.67000000E+01  -3.32437623E-01   0.00000000E+00
   7   6.35600000E+00  -2.18659068E-01   0.00000000E+00
   8   1.31600000E+00   1.09559041E+00   0.00000000E+00
   S  1
   1   3.89700000E-01   1.00000000E+00   0.00000000E+00
   P  3
   1   2.26700000E+01   6.48340215E-02   0.00000000E+00
   2   4.97700000E+00   3.40535360E-01   0.00000000E+00
   3   1.34700000E+00   7.34646407E-01   0.00000000E+00
   P  1
   1   3.47100000E-01   1.00000000E+00   0.00000000E+00
   D  1
   1   1.64000000E+00   1.00000000E+00   0.00000000E+00

 $END
 $VEC
 1  1-6.92109197E-02 8.82513958E-04 1.95472654E-03 5.69471866E-14 1.90340343E-14
 1  2-4.67159894E-04 8.90285739E-14 3.53452048E-14 3.40490652E-04-6.93716215E-05
 1  3-6.64816485E-05 1.35853270E-04 1.66567913E-06 3.55887751E-14 5.33886658E-15
 1  4 9.97406074E-01-2.00920044E-02-2.54253821E-02 2.41258084E-12 2.33558382E-13
 1  5-1.12638567E-03 1.70921469E-12 1.73232005E-13 7.41610881E-05 1.23096729E-04
 1  6 1.10371034E-04-2.33467763E-04-7.33464424E-06-5.73598462E-15-1.31202215E-15
 2  1-9.97841021E-01 1.46575096E-02 2.07062940E-02-4.26131688E-15 2.14514074E-15
 2  2-1.11809071E-03-6.74073674E-15 3.22395028E-15-1.45712498E-05-1.60442434E-04
 2  3 2.11964295E-05 1.39246005E-04 1.04690276E-04-2.95360297E-15 1.55584704E-15
 2  4-6.91683319E-02-8.43439249E-04-2.27206339E-03-2.14795265E-13 9.81187879E-14
 2  5-1.61679646E-03-1.51937614E-13 6.95090944E-14-1.19384997E-03-9.74110456E-05
 2  6-9.70890754E-05 1.94500121E-04 1.85572282E-07 1.33978637E-16-6.39678820E-16
 3  1-1.31692037E-13-5.46127324E-15-6.76573298E-15 1.18928801E-02-4.92024204E-03
 3  2-8.49605356E-17 2.17193606E-02-8.98558722E-03-1.46094564E-15 4.26230965E-17
 3  3-1.77900732E-16 1.35277636E-16 9.21753735E-17 7.50831131E-03-3.10628808E-03
 3  4-3.18824411E-12 1.78578557E-13 2.11145551E-13 6.27199687E-01-2.59480845E-01
 3  5 1.16706511E-14 4.33210552E-01-1.79224962E-01 5.60002676E-15-2.89833857E-16
 3  6-4.05751911E-16 6.95585768E-16 9.97438834E-17-2.47325890E-03 1.02322005E-03
 4  1 1.29760072E-13-3.23126733E-15-3.25095852E-15 7.25555239E-03 1.75376334E-02
 4  2-1.68987129E-14 1.30464950E-02 3.15351104E-02-1.19042436E-14 4.08891734E-16
 4  3 2.54684531E-16-6.63576265E-16 3.56248134E-17 3.48394960E-03 8.42116902E-03
 4  4-1.69414710E-12 9.51342738E-14 1.14181003E-13 2.58369097E-01 6.24512444E-01
 4  5 3.36282982E-14 1.79580805E-01 4.34070672E-01 2.19395534E-14-3.89466631E-17
 4  6 6.02607611E-17-2.13140980E-17-5.24433772E-17-1.13588408E-03-2.74558272E-03
 5  1-6.94549680E-03-2.15136094E-02-1.53407521E-02-3.66881624E-15-1.56791596E-15
 5  2-4.34840518E-02-6.86061110E-15-2.28994353E-15-2.69396444E-02-8.28120157E-04
 5  3-3.31386883E-04 1.15950704E-03 2.86299655E-04-2.18403833E-15-3.85034749E-16
 5  4 3.73621038E-02 5.06092224E-01 5.74801744E-01-1.74110380E-13-1.93438087E-14
 5  5 9.05174074E-02-1.20218752E-13-1.37218970E-14 6.21622545E-02 8.45666867E-04
 5  6 9.49343363E-04-1.79501023E-03 5.97554998E-05 9.35887743E-16 1.74960931E-16
 6  1 1.96176831E-17-4.71488639E-16-6.02837395E-17 6.43195292E-01-2.66098495E-01
 6  2-3.17332814E-16 4.06967352E-01-1.68367837E-01-1.74280204E-17-4.71631956E-17
 6  3 6.14829752E-17-1.43197796E-17 8.47004156E-17 1.39217891E-03-5.75963030E-04
 6  4-2.36251847E-16 1.23767636E-16 6.39426298E-17-5.08121431E-02 2.10216632E-02
 6  5-7.44267520E-18-4.65754687E-02 1.92688944E-02 1.43222199E-17-7.23204100E-17
 6  6 7.40441119E-17-1.72370193E-18-6.01372692E-17-2.36303046E-03 9.77617302E-04
 7  1 3.59719776E-02 5.11653216E-01 5.64966936E-01 2.63575361E-16-1.10357868E-15
 7  2-7.88638378E-02 8.33171899E-17-1.21364165E-16-6.08635676E-02 7.58037265E-04
 7  3-1.12447226E-04-6.45590039E-04-5.01716803E-04 2.37968248E-16 7.37831580E-17
 7  4-3.23008504E-04-9.67247706E-03-2.52661958E-02 3.73826004E-15-3.48400022E-15
 7  5 2.62925556E-02 2.54549716E-15-3.32550159E-15 2.53928218E-02-1.25940905E-03
 7  6-1.19535043E-03 2.45475948E-03 3.69211480E-05 6.53332335E-18 3.49821319E-16
 8  1 3.37748266E-01 8.12685086E-01-8.77989253E-01-4.28874576E-16-4.06086189E-14
 8  2-2.18464347E-01-2.88347534E-14-6.29210938E-15-1.71753153E-02 2.92724027E-01
 8  3-6.20556111E-01 3.27832084E-01-5.26382675E-01 1.47932481E-14 1.01642248E-14
 8  4-1.80087008E-02-2.56079903E-02 1.13545645E-01-7.10616632E-14 1.85858235E-14
 8  5 6.61123362E-02 8.29685331E-14-1.67422395E-14-2.41745720E-01 3.71233056E-03
 8  6 4.29044877E-03-8.00277933E-03 3.33207085E-04 1.47650282E-14-3.46181491E-15
 9  1-4.50215244E-03-2.72517020E-02-5.18167508E-03-1.53908219E-15-4.06399212E-15
 9  2-3.65160025E-01-1.05041874E-15-3.33726211E-15-2.37382813E-01 6.43945395E-03
 9  3 8.83099055E-03-1.52704445E-02 1.37839791E-03 4.01619596E-16-4.28296454E-16
 9  4-4.24673972E-03-5.09791331E-02-1.99263399E-02 4.42744224E-15-2.91033283E-14
 9  5 5.09379750E-01 2.85214416E-15-1.97093696E-14 3.50334865E-01 4.33364889E-03
 9  6 4.20625720E-03-8.53990609E-03-7.34241102E-05-1.92832354E-17 3.89945850E-16
10  1-5.09654891E-02-1.88920534E-01 3.76586898E-02 1.06917202E-15-1.31355116E-14
10  2-5.49666012E-01-1.83345361E-14-8.54061289E-15-3.81302816E-01-3.50228859E-02
10  3 1.02783289E-01-6.77604034E-02 7.94266514E-02 8.46097909E-15-9.84639078E-15
10  4 4.95325051E-02 1.76292498E-01 7.10474451E-03-2.56178785E-14 3.66208785E-14
10  5-5.39927351E-01 3.34567075E-14-3.36083077E-14-2.11135190E-01-5.83771566E-02
10  6-5.70459734E-02 1.15423130E-01 7.67247401E-04 5.93242032E-15-8.30634681E-15
11  1-1.98201258E-02-8.61980072E-02-1.93112549E-02-8.40687009E-14-1.65615837E-14
11  2-9.79384791E-02 1.07420066E-13-1.11285272E-13-1.71094732E-01-2.29689180E-02
11  3 2.14275288E-02 1.54138923E-03 2.55885565E-02-1.09119113E-13 1.75928916E-14
11  4-3.09453084E-01-7.48688442E-01 8.03170688E-01 4.13480738E-13-6.84644937E-14
11  5 3.56608961E-02-4.72387655E-13 8.89507295E-14-2.11051214E-01 4.34524720E-01
11  6 4.23616658E-01-8.58141378E-01-6.28702432E-03-8.26352642E-14 3.86108520E-14
12  1 3.09564539E-15 3.10298453E-14-4.84450114E-14 1.28197633E-01 3.09870006E-01
12  2-4.43435122E-14 1.62057706E-01 3.91716094E-01-3.28228348E-14 6.01551754E-15
12  3-2.19207285E-14 1.59052110E-14-2.57323632E-14 5.46459466E-02 1.32085589E-01
12  4-1.95548224E-14-5.01636370E-14 5.66982016E-14-2.52237772E-01-6.09688696E-01
12  5-7.30985965E-15 2.40054306E-01 5.80239084E-01-4.76006503E-14 4.88413723E-14
12  6 4.03294343E-14-8.91708066E-14 2.73189387E-15 3.42010877E-02 8.26678313E-02
13  1 1.07374186E-13 3.30885539E-13-3.16078723E-13 1.53527418E-01-6.35153154E-02
13  2-3.83403598E-14-2.68933063E-01 1.11262511E-01 6.50267208E-14 1.20692352E-13
13  3-2.63890871E-13 1.43198519E-13-2.23714465E-13 2.09807594E-01-8.67997680E-02
13  4 1.79148554E-13 3.54600339E-13-3.44225601E-13-7.94740032E-01 3.28792600E-01
13  5 6.87463333E-14 9.17951924E-01-3.79767088E-01-3.52152135E-14-1.43614563E-13
13  6-1.60242120E-13 3.03856683E-13 1.47848398E-14 1.69398783E-01-7.00822666E-02
14  1 3.80705259E-01 8.23285801E-01-1.16026736E+00-5.39694122E-14 2.19751184E-14
14  2 5.03273782E-01 1.06499430E-13-5.94417365E-14-1.16668584E+00 1.68669343E-01
14  3 3.34674626E-01-5.03343969E-01 9.56796294E-02-9.35745252E-14 3.25779314E-14
14  4-4.39192834E-01-9.61777230E-01 1.48518807E+00 3.37458849E-13-1.26554616E-13
14  5 3.35180654E-01-3.91375478E-13 1.41391934E-13-8.96231304E-01-1.48559279E-01
14  6-1.46426973E-01 2.94986252E-01 1.22898664E-03-7.52271699E-14 2.38517257E-14
15  1-8.34886274E-02-2.37814688E-01 1.16861582E-01-1.73003846E-14-2.76522479E-14
15  2 1.44848227E-01-2.89849529E-15 5.97428352E-14-3.50827932E-01 8.51023240E-02
15  3 4.73774650E-02-1.32479789E-01-2.17432871E-02 8.34930109E-14-2.54555860E-14
15  4 3.53818381E-01 9.02048303E-01-7.74417093E-01-2.14713542E-13 1.06195712E-13
15  5 6.33779341E-01 2.38825334E-13-1.22729171E-13-8.46973201E-01 1.14854561E-01
15  6 1.11814523E-01-2.26669084E-01-1.75217141E-03 6.21179721E-14-1.59446109E-14
16  1-1.72067163E-14-4.89989816E-14 4.88116753E-14-3.68933657E-01-8.91761134E-01
16  2 1.01109279E-14 4.16404744E-01 1.00650477E+00-9.27471548E-15 3.86657678E-15
16  3-8.23686687E-15 4.37029009E-15-8.38578272E-15 3.15703771E-02 7.63102427E-02
16  4-3.27964820E-14-7.21468440E-14 6.97478898E-14 7.42506163E-02 1.79471801E-01
16  5-2.27717040E-14-1.37844006E-01-3.33185160E-01 3.16053320E-14-6.79317060E-15
16  6-7.58413290E-15 1.43773035E-14 6.39596125E-16 2.29123813E-02 5.53826328E-02
17  1-4.60444736E-01-1.16993427E+00 1.08317422E+00-8.86559523E-14 4.84223360E-14
17  2 1.50561171E-01 1.41430072E-13-1.37615275E-13-2.88227860E-01 2.45999929E-01
17  3-3.04967477E-01 5.89675480E-02-3.17558310E-01-1.44612865E-13 5.21448757E-14
17  4-2.05808877E-01-5.22215728E-01 4.76625892E-01 5.07166300E-13-2.26413633E-13
17  5 1.44172946E-01-5.79818355E-13 2.69136561E-13-1.23995866E-01-1.25495793E-01
17  6-1.19980925E-01 2.45476718E-01 3.17857699E-03-1.13687162E-13 3.45946873E-14
18  1-2.05857145E-14-6.14814860E-14 5.87087197E-14-8.70035475E-01 3.59945077E-01
18  2 8.67638195E-15 9.99443656E-01-4.13483528E-01-1.55740174E-14-2.92211492E-14
18  3 4.46376958E-14-1.54165466E-14 4.23547445E-14 3.33388140E-02-1.37928170E-02
18  4-6.92993453E-14-1.48593221E-13 1.45401138E-13-1.41224847E-01 5.84270930E-02
18  5-3.48974126E-14 3.47301286E-02-1.43687835E-02 3.32046631E-14 5.28859640E-14
18  6 4.82786180E-14-1.01164582E-13 1.20970737E-15 7.31159244E-02-3.02491011E-02
19  1 1.97738751E-02 1.08948161E-02-1.33430876E-01-2.14505751E-14 5.49609981E-15
19  2-8.05521042E-01 3.62716298E-14-6.39176669E-15 7.05882080E-01 9.73578229E-02
19  3 2.17994060E-01-3.15351883E-01 6.95305007E-02-1.88333881E-14 7.55688902E-15
19  4-1.51718595E-01-3.92056332E-01 2.41119694E-01 6.91874826E-14-2.38453206E-14
19  5 4.82663096E-01-8.21246712E-14 2.55819164E-14-5.45215592E-01-1.06799088E-01
19  6-1.05037409E-01 2.11836497E-01 1.01536955E-03-1.52083878E-14 2.85664029E-15
20  1-5.36120049E-15-2.91476928E-14 2.64126410E-14 1.78357396E-01 4.31114261E-01
20  2 6.40898372E-16 3.80912111E-02 9.20700330E-02-7.94153507E-15 1.52303750E-15
20  3-7.40106969E-15 5.87803219E-15-2.24605181E-14 2.31679606E-01 5.60001340E-01
20  4-2.48476123E-14-3.63648210E-14 4.02539667E-14 2.11479166E-01 5.11168767E-01
20  5-4.20660372E-15-2.73559347E-01-6.61224083E-01 7.22139151E-15 9.01573967E-15
20  6-4.10834599E-15-4.90739368E-15 6.37831947E-15 9.12216075E-02 2.20495586E-01
21  1 3.08545421E-14 9.30348322E-14-8.15930826E-14-3.06798130E-03 1.26962319E-03
21  2-5.15733713E-15-4.59833110E-02 1.90243513E-02 2.56480819E-14 4.33973822E-14
21  3-6.24652225E-14 1.90678403E-14-5.75719875E-14-7.75649454E-01 3.20896734E-01
21  4 8.22022841E-14 1.72184602E-13-1.69911953E-13-2.89018046E-01 1.19569977E-01
21  5 8.71334859E-15 3.89266534E-01-1.61044151E-01 2.69563593E-15-9.67395501E-14
21  6-5.73642939E-14 1.54103844E-13-2.13725366E-14-4.46313773E-01 1.84646081E-01
22  1-2.66497709E-14-1.04823764E-11-9.38499903E-12-4.84885667E-16 1.43368733E-15
22  2 1.11991123E-13 1.48773622E-15 1.12850291E-15 2.83979056E-12-4.33009375E-01
22  3 4.33009375E-01-7.58040267E-11-5.00850908E-01-1.81418252E-14-1.12114560E-14
22  4 4.05195198E-12 1.31338172E-11-5.26962892E-12 5.31232534E-15 3.28368301E-15
22  5-3.12532717E-11-4.99407124E-15-3.17122319E-15 1.22181179E-11 4.33009375E-01
22  6-4.33009375E-01 3.03318118E-11 5.00850908E-01-4.67365748E-14-2.91937277E-14
23  1 1.03283785E-03 2.71304166E-03-2.30343734E-03 2.56913342E-16-1.00215416E-17
23  2 1.63842358E-04-4.07295630E-16 2.58385175E-16 7.71740812E-04 8.60194388E-03
23  3 1.83835262E-03-1.04402965E-02-3.89829705E-03-1.08814732E-16-4.31223864E-16
23  4 4.38808423E-04 1.42104927E-03-5.54376726E-04-1.39728390E-15 2.19231919E-16
23  5-2.38322519E-03 1.69003054E-15-2.18679759E-16 9.65979286E-04-6.06872440E-01
23  6 6.18742635E-01-1.18701949E-02 7.06401591E-01 2.02846413E-15 5.30599464E-15
24  1-9.30740587E-14 1.01306570E-11 9.46975674E-12-7.57599449E-16-1.19204602E-16
24  2-5.35542748E-13 3.91530002E-16-6.99293421E-16-3.27192280E-12 4.32277035E-01
24  3-4.32277035E-01 8.69483951E-11 5.00003829E-01-1.18644132E-14 4.59834656E-15
24  4-4.57416931E-12-1.48003764E-11 6.01514300E-12 2.50807786E-15-1.91896860E-15
24  5 3.42515324E-11-2.26226090E-15 2.13439177E-15-1.39963976E-11 4.32277035E-01
24  6-4.32277035E-01-2.99126917E-11 5.00003829E-01-1.71197371E-14 2.02311654E-14
25  1 5.69031402E-17 3.91493420E-15-1.99171117E-15-6.67371825E-03-1.61313636E-02
25  2 1.87588170E-15-1.27947487E-02-3.09264190E-02 2.74243380E-15 2.71048268E-14
25  3 2.92821696E-14-5.63869964E-14-4.72518373E-14-1.22545924E-01-2.96209865E-01
25  4 5.43895814E-15 1.17781759E-14-7.99312057E-15-5.46786983E-03-1.32160278E-02
25  5-1.52868269E-14 2.00309528E-02 4.84168422E-02 8.83407159E-15 7.88878898E-15
25  6-2.14874038E-14 1.35986148E-14 8.35315890E-15 3.59449071E-01 8.68835886E-01
26  1 3.02448021E-15 9.67888141E-15-8.63337081E-15 3.18596743E-02-1.31807361E-02
26  2-7.84668518E-16-2.11353512E-02 8.74402480E-03 2.29646769E-15-9.21402803E-15
26  3-2.23961837E-15 1.14536464E-14-3.10597350E-15-4.66502417E-01 1.92998309E-01
26  4 8.76134964E-15 1.70827432E-14-1.78129049E-14 2.55928627E-02-1.05881837E-02
26  5 3.41227048E-15 1.10441155E-02-4.56902740E-03-1.18709463E-15 7.68695026E-15
26  6-2.15946000E-14 1.39076497E-14 1.77269451E-14 7.88446787E-01-3.26190967E-01
27  1-1.06341121E-02-3.45653722E-02 7.69904115E-03-8.18079183E-15-1.16995460E-15
27  2-3.01945714E-02 9.62162801E-15-1.00110870E-14-3.38075436E-02-6.91619283E-01
27  3-1.43556715E-01 8.35175998E-01 3.15884063E-01-2.07441768E-14-6.50467697E-15
27  4-3.35096709E-02-1.11863569E-01 4.47986324E-02 3.53894956E-14-1.54273900E-14
27  5 2.21544938E-01-3.93097685E-14 1.98335571E-14-1.25667147E-01-6.92745475E-02
27  6-5.29760245E-02 1.22250572E-01 9.39389769E-03 1.24927788E-15 6.84883308E-14
28  1-1.49214024E-15 5.97674539E-15-3.47610166E-15-1.41942742E-01-3.43094894E-01
28  2 4.46723575E-15-1.03799028E-01-2.50895119E-01 5.43647474E-15-2.06553273E-14
28  3 4.54597014E-14-2.48043741E-14 9.41091100E-15 2.74352732E-01 6.63146164E-01
28  4 1.36906371E-14 1.92835494E-14-2.15908603E-14-1.14273242E-01-2.76210972E-01
28  5-3.50633438E-15 1.37007704E-01 3.31162770E-01 1.33127252E-15 8.52583801E-15
28  6-1.21900306E-14 3.66419255E-15 1.04077480E-14 8.42750047E-02 2.03703286E-01
 $END
