 $CONTRL SCFTYP=GVB RUNTYP=ENERGY ICHARG=0 MULT=2 NOSYM=1 ICUT=11
  MAXIT=500 ISPHER=1 $END
 $SYSTEM MWORDS=312 $END
 $SCF NCO=5 NPAIR=2 NSETO=1 NO(1)=1 DIRSCF=.T. $END
 $GUESS GUESS=MOREAD NORB=28 $END
 $DATA
GAMESS inp file produced by MOKIT,nif=28,nbf=28
C1   1
C     6.         0.00000000         0.00000000         0.00000000
   S  8
   1   6.66500000E+03   6.91583963E-04   0.00000000E+00
   2   1.00000000E+03   5.32579615E-03   0.00000000E+00
   3   2.28000000E+02   2.70607210E-02   0.00000000E+00
   4   6.47100000E+01   1.01656846E-01   0.00000000E+00
   5   2.10600000E+01   2.74574824E-01   0.00000000E+00
   6   7.49500000E+00   4.48294319E-01   0.00000000E+00
   7   2.79700000E+00   2.84902611E-01   0.00000000E+00
   8   5.21500000E-01   1.51948592E-02   0.00000000E+00
   S  8
   1   6.66500000E+03  -2.93269653E-04   0.00000000E+00
   2   1.00000000E+03  -2.31803547E-03   0.00000000E+00
   3   2.28000000E+02  -1.14997860E-02   0.00000000E+00
   4   6.47100000E+01  -4.68267270E-02   0.00000000E+00
   5   2.10600000E+01  -1.28466169E-01   0.00000000E+00
   6   7.49500000E+00  -3.01266272E-01   0.00000000E+00
   7   2.79700000E+00  -2.55630702E-01   0.00000000E+00
   8   5.21500000E-01   1.09379336E+00   0.00000000E+00
   S  1
   1   1.59600000E-01   1.00000000E+00   0.00000000E+00
   P  3
   1   9.43900000E+00   5.69792516E-02   0.00000000E+00
   2   2.00200000E+00   3.13207212E-01   0.00000000E+00
   3   5.45600000E-01   7.60376742E-01   0.00000000E+00
   P  1
   1   1.51700000E-01   1.00000000E+00   0.00000000E+00
   D  1
   1   5.50000000E-01   1.00000000E+00   0.00000000E+00

F     9.         0.00000000         0.00000000         1.40000000
   S  8
   1   1.47100000E+04   7.20673709E-04   0.00000000E+00
   2   2.20700000E+03   5.55048697E-03   0.00000000E+00
   3   5.02800000E+02   2.82542077E-02   0.00000000E+00
   4   1.42600000E+02   1.06395828E-01   0.00000000E+00
   5   4.64700000E+01   2.86684201E-01   0.00000000E+00
   6   1.67000000E+01   4.48437966E-01   0.00000000E+00
   7   6.35600000E+00   2.64641181E-01   0.00000000E+00
   8   1.31600000E+00   1.53260610E-02   0.00000000E+00
   S  8
   1   1.47100000E+04  -3.21193890E-04   0.00000000E+00
   2   2.20700000E+03  -2.54619157E-03   0.00000000E+00
   3   5.02800000E+02  -1.26433595E-02   0.00000000E+00
   4   1.42600000E+02  -5.19574917E-02   0.00000000E+00
   5   4.64700000E+01  -1.43447138E-01   0.00000000E+00
   6   1.67000000E+01  -3.32437623E-01   0.00000000E+00
   7   6.35600000E+00  -2.18659068E-01   0.00000000E+00
   8   1.31600000E+00   1.09559041E+00   0.00000000E+00
   S  1
   1   3.89700000E-01   1.00000000E+00   0.00000000E+00
   P  3
   1   2.26700000E+01   6.48340215E-02   0.00000000E+00
   2   4.97700000E+00   3.40535360E-01   0.00000000E+00
   3   1.34700000E+00   7.34646407E-01   0.00000000E+00
   P  1
   1   3.47100000E-01   1.00000000E+00   0.00000000E+00
   D  1
   1   1.64000000E+00   1.00000000E+00   0.00000000E+00

 $END
 $VEC
 1  1-8.99429913E-02 1.72011233E-03 3.80498016E-04-1.13385342E-14-5.50638578E-15
 1  2 4.70204118E-04-5.87229161E-15-4.41443441E-15-1.01232243E-03-1.42756812E-04
 1  3-1.14457004E-04 2.57213816E-04 3.52858320E-05-3.14887912E-15-1.85718691E-15
 1  4-9.96175778E-01 1.89285976E-02 2.62510510E-02-6.41083066E-14-2.48591427E-14
 1  5 3.69003092E-03-4.38907622E-14-1.82809797E-14 7.84463275E-04-1.90881296E-04
 1  6-1.50496134E-04 3.41377430E-04 5.03545494E-05 1.64751890E-15 7.89008134E-16
 2  1-9.90569736E-01 1.15133658E-02 1.63606643E-02-3.97817553E-14-8.99242638E-14
 2  2-4.54235297E-03-3.09091386E-14-5.90030345E-14-1.80577139E-03-3.24903528E-04
 2  3 1.23115912E-05 3.12591937E-04 4.20459256E-04-1.30856650E-14-2.82127953E-14
 2  4 9.30502910E-02 5.47483490E-02 6.14561585E-02-1.98327415E-13-4.77817014E-13
 2  5 1.21289243E-02-1.41665446E-13-3.32356834E-13 7.72788901E-03-2.65815993E-04
 2  6-3.71346951E-04 6.37162944E-04-1.31582083E-04 5.88726225E-15 1.07328721E-14
 3  1-1.07113312E-01-3.56091578E-02 4.21410083E-03-2.03820644E-13 2.10758121E-13
 3  2-7.57360694E-02-6.18315434E-14 9.44339760E-14-1.35251184E-02 1.14250992E-02
 3  3 1.11772503E-02-2.26023495E-02-3.09032326E-04-5.03557176E-14 5.77010917E-14
 3  4-2.64015411E-02-4.93224962E-01-5.40791443E-01-1.23204056E-12 1.21146408E-12
 3  5 2.20124897E-03-8.12365809E-13 8.16211224E-13-5.66766335E-03 1.88128296E-03
 3  6 2.44126416E-03-4.32254712E-03 6.98216861E-04 2.09115025E-14-2.38319609E-14
 4  1 1.46146623E-02-1.26246888E-01 6.93045869E-02 3.58510576E-15-1.42419122E-15
 4  2-2.96059851E-01 2.14132109E-15-1.12712986E-15-6.55194974E-02 2.49506840E-02
 4  3 2.49711651E-02-4.99218491E-02 2.55370879E-05 3.58414735E-16 3.28644201E-16
 4  4 5.84421233E-03 6.16837106E-02 1.14864633E-01 9.64093441E-15-1.91290191E-15
 4  5 5.77318640E-01 6.62416900E-15-1.48638927E-15 3.80075807E-01 1.01261107E-02
 4  6 9.82233485E-03-1.99484456E-02-3.78765300E-04-1.03519102E-16 4.08233367E-16
 5  1-7.39219389E-13 2.19080841E-14 1.61231512E-15 6.22309727E-02 9.73943947E-02
 5  2 4.32172979E-14 4.29577852E-02 6.72309510E-02 8.87066977E-15-7.07605545E-15
 5  3-6.40601665E-15 1.34820721E-14 5.97290750E-16 2.02003366E-02 3.16144755E-02
 5  4 1.90851838E-15 3.20873894E-13 3.56178255E-13 3.44530153E-01 5.39205870E-01
 5  5 4.86707599E-15 2.41468168E-01 3.77909024E-01 6.41781670E-15-1.86621697E-15
 5  6-1.62654760E-15 3.49276457E-15 1.89805769E-16-8.27391524E-03-1.29490659E-02
 6  1 1.31208672E-16 9.06686480E-16-6.39526548E-16 6.00031123E-01-3.83394964E-01
 6  2 2.62324070E-16 3.68781128E-01-2.35635823E-01-7.99778301E-16 5.61414651E-16
 6  3-4.78252371E-16-8.31622794E-17-8.68950527E-17 6.96479730E-03-4.45021620E-03
 6  4 1.14293032E-16 1.18822876E-15 2.27639199E-15-1.58869700E-01 1.01511139E-01
 6  5-1.89446764E-15-1.53380690E-01 9.80038907E-02-1.39178136E-15 1.28233071E-16
 6  6-1.69472054E-16 4.12389835E-17 1.33902808E-17-5.82414734E-03 3.72138825E-03
 7  1-1.33806394E-13 5.96296069E-14 1.76984468E-13 8.59160971E-02-5.48968175E-02
 7  2-2.48463034E-13 4.49604014E-02-2.87278288E-02-7.38528833E-14 3.21879831E-14
 7  3 2.97402333E-14-6.19282164E-14-1.73589303E-15 2.59896996E-02-1.66063385E-02
 7  4-1.39336620E-13-1.27069881E-12-1.41526873E-12 5.52896670E-01-3.53278005E-01
 7  5 8.36390761E-15 3.78116868E-01-2.41600972E-01-3.44992782E-15 6.00417995E-15
 7  6 5.57954785E-15-1.15837278E-14-5.65012541E-16-1.13316676E-02 7.24046485E-03
 8  1 1.09623043E-13 4.42190586E-13 2.00770149E-13 6.49903429E-01-4.15261248E-01
 8  2 1.13433278E-12-6.57913313E-01 4.20379311E-01 1.16786422E-13-2.22086951E-13
 8  3-1.48265305E-13 3.70352256E-13 9.83720491E-14-1.20854926E-01 7.72212865E-02
 8  4-1.25827516E-13-4.87535022E-13-1.93015332E-13 4.75661677E-01-3.03928082E-01
 8  5 5.62660069E-13-3.86465175E-01 2.46935204E-01 5.28450690E-13-1.76539760E-13
 8  6 3.24451036E-14 1.44094656E-13 2.58576616E-13 8.48239252E-02-5.41989652E-02
 9  1 2.93525785E-02 4.86640561E-01 5.76259252E-01-2.53784915E-14 1.83304092E-14
 9  2-2.09794554E-01-1.32915611E-14 1.00960515E-14-1.24716114E-01 9.07204280E-03
 9  3 7.45170000E-03-1.65237428E-02-2.02033685E-03-7.19114408E-15 5.44884330E-15
 9  4-1.35146275E-03-4.83625989E-02-9.94604686E-02-1.60396183E-13 1.14196321E-13
 9  5 4.32948403E-02-1.09643221E-13 7.83953599E-14 6.01656904E-02-2.01478245E-03
 9  6-1.80179474E-03 3.81657719E-03 2.65565368E-04 3.23555680E-15-2.33760653E-15
10  1 1.72896864E-01 5.06351614E-01-2.57730719E-01-3.77678159E-13 2.56012812E-13
10  2 2.16602150E-01 4.00207416E-13-2.49835529E-13 4.46168598E-01 4.38692828E-01
10  3 4.08884543E-04-4.39101713E-01-5.46477694E-01 7.33919008E-14-4.65145884E-14
10  4 1.95275149E-02-1.61807524E-02-1.62756959E-01-2.88852454E-13 1.74141331E-13
10  5 1.68132049E-01 2.29282105E-13-1.42907151E-13 9.99455025E-02-6.02240113E-03
10  6-9.42083337E-03 1.54432345E-02-4.23736129E-03-5.26617072E-14 3.03571125E-14
11  1-2.21333588E-14-6.58137953E-14-1.48578063E-14 4.13841887E-01 6.47681793E-01
11  2-9.72680600E-14 1.95342472E-01 3.05720317E-01-1.06897418E-13-1.49354933E-14
11  3 9.88118107E-15 5.05431219E-15 4.80506089E-14 6.58800161E-02 1.03105347E-01
11  4 5.29309444E-14 1.57013204E-13-4.75112875E-14-1.10552436E-01-1.73019905E-01
11  5-6.70048971E-14-1.21538631E-01-1.90213565E-01-6.71889540E-14 6.91093806E-14
11  6-8.42127576E-15-6.06881048E-14-8.49430428E-14-1.37363530E-03-2.14982927E-03
12  1-1.21950189E-01-4.00419183E-01-5.94360486E-02-1.76015685E-12 1.28297262E-12
12  2-1.01702290E+00 2.00969113E-12-1.21984102E-12 2.58794032E-01 3.33018569E-01
12  3 1.29975905E-01-4.62994474E-01-2.53165301E-01 3.46742795E-13-2.33513756E-13
12  4 1.44518872E-02 1.51272446E-01 2.46509031E-01-1.46758374E-12 8.57684771E-13
12  5-4.37406732E-01 1.13620649E-12-7.15630679E-13-4.02588807E-01 3.40690040E-02
12  6-3.19191064E-02-2.14989753E-03-8.22777815E-02-2.43628470E-13 1.61883022E-13
13  1-2.37571013E-01-4.30127434E-01 1.89865350E+00 1.24429663E-12-9.58604276E-13
13  2 3.83088108E-01-1.43302673E-12 8.42341543E-13 1.45738928E+00-4.10972060E-01
13  3-4.14982255E-01 8.25954315E-01-5.00014340E-03-2.67306153E-13 1.37710282E-13
13  4 7.35208034E-01 1.53917614E+00-3.21218972E+00 1.01680313E-12-6.17115452E-13
13  5-1.35064402E-01-7.68311743E-13 5.51145222E-13 1.26612615E+00 1.03370403E-01
13  6 1.01436694E-01-2.04807097E-01-2.41105910E-03 1.76385752E-13-1.14787788E-13
14  1 5.74893555E-01 1.40636501E+00-1.29297052E+00 5.61896531E-13-5.73171228E-13
14  2-1.48909637E-01-7.99646946E-13 3.78902220E-13 1.01642405E-01-1.12293376E-01
14  3 1.50084717E-02 9.72849041E-02 1.58727284E-01-1.69762608E-13 1.65930694E-14
14  4 2.79730289E-01 7.04195846E-01-5.47378909E-01 3.49496619E-13-2.45859823E-13
14  5-6.05376271E-02-1.49327360E-13 2.74553338E-13 1.16204294E-01 5.95569226E-02
14  6 4.89703154E-02-1.08527238E-01-1.31999924E-02 5.13641832E-14-5.28021143E-14
15  1 1.98030152E-14 4.57762733E-14-7.48905052E-14-2.91165150E-01-4.55687224E-01
15  2-1.07411966E-13 5.19595894E-01 8.13192109E-01 6.22346429E-14-1.06598623E-15
15  3 7.51879186E-15-6.45280563E-15 9.67867445E-15 2.33875707E-01 3.66026518E-01
15  4 1.97979217E-14 5.50773471E-14-3.95681287E-14 3.46153063E-01 5.41745848E-01
15  5-1.40142819E-15-5.79599059E-01-9.07099848E-01-5.47952849E-14-6.13375673E-15
15  6-4.87111517E-15 1.10048719E-14 9.18215160E-16 7.27855029E-02 1.13912741E-01
16  1 3.34050995E-14 4.10267865E-14-2.01089112E-13-3.69280847E-01 2.35955065E-01
16  2-4.75126806E-13 7.21096667E-01-4.60750755E-01 1.87496845E-13 1.17571590E-13
16  3 4.92640524E-14-1.66835642E-13-8.50144801E-14 3.87064504E-01-2.47318113E-01
16  4 3.23384251E-14 1.23605480E-13 2.34487594E-14 6.05807907E-01-3.87086043E-01
16  5-1.93101421E-13-9.66291564E-01 6.17420103E-01-1.36150823E-13 1.53015248E-14
16  6-7.12322267E-15-8.17830215E-15-2.80172945E-14 1.24822394E-01-7.97563156E-02
17  1 2.06523781E-01 4.71553118E-01 4.87048127E-02 6.59373949E-13-4.63110367E-13
17  2 2.20375823E-01-7.45781445E-13 4.43103996E-13 2.16492580E-01-9.99440510E-02
17  3-8.95991430E-02 1.89543194E-01 1.28986281E-02-1.51576070E-13 1.18221199E-13
17  4-1.83084211E-01-5.23121411E-01 1.86010287E-01 5.36984795E-13-2.82305907E-13
17  5-7.86751028E-01-4.06294261E-13 2.16734869E-13 1.23973629E+00 8.94184261E-02
17  6 7.62649519E-02-1.65683378E-01-1.64005102E-02 9.92272528E-14-4.56052995E-14
18  1-1.84987388E-02 4.72199543E-02 3.04028304E-02-5.48846456E-13 6.80235970E-13
18  2-5.80693858E-01 6.41583114E-13-5.91164567E-13 9.87298021E-01-3.34963236E-01
18  3-2.70978480E-01 6.05941716E-01 7.97798833E-02 9.49321466E-14 2.44843389E-14
18  4-2.27425372E-01-6.30184887E-01 6.68176264E-03-5.03685500E-13 4.08569826E-13
18  5 4.25322431E-01 4.04088673E-13-3.97946393E-13-2.66655836E-01 1.24187958E-02
18  6 2.23689759E-02-3.47877717E-02 1.24064584E-02-8.73618637E-14 8.83301871E-14
19  1 6.81709403E-15 5.71916130E-14 5.04108056E-14-3.78581490E-01-5.92497668E-01
19  2 7.33450848E-14 4.05054380E-01 6.33928992E-01 1.67443148E-13-1.00969164E-13
19  3-1.12939431E-13 2.13908595E-13-4.82078226E-15-1.35284662E-01-2.11726860E-01
19  4-7.93395036E-14-2.32890465E-13 1.71225870E-14-3.19220912E-01-4.99595609E-01
19  5 1.54253087E-13 3.14326097E-01 4.91935017E-01 3.94292227E-14 5.82124804E-14
19  6 2.32964489E-14-8.15089293E-14-3.70093801E-14-5.94734121E-02-9.30786648E-02
20  1-4.76114820E-14-1.74561347E-13-7.13428241E-14-2.01512297E-01 1.28757974E-01
20  2-5.54173899E-13 1.83599626E-01-1.17312546E-01 2.01662767E-13 2.15982351E-13
20  3 2.42394670E-13-4.58377021E-13 3.66283416E-14-6.79509713E-01 4.34178503E-01
20  4 3.39158258E-14 1.43529157E-13 1.02954177E-13 1.75876094E-01-1.12377520E-01
20  5-2.67597908E-13-1.89688398E-02 1.21203043E-02-1.92138092E-13-2.09649981E-13
20  6-1.52675499E-13 3.62325480E-13 6.97076130E-14-5.75214602E-01 3.67538259E-01
21  1-2.51584511E-14-8.29035003E-14 2.83483458E-15-6.30317179E-03-9.86478216E-03
21  2-2.41897326E-13-1.78109558E-02-2.78749623E-02 2.20460900E-13 7.44535340E-14
21  3 3.11641467E-13-3.86095001E-13 2.86608456E-13 3.83045551E-01 5.99484246E-01
21  4 9.65411940E-15 3.61582228E-14 3.89674313E-14-1.68207035E-01-2.63251909E-01
21  5-1.22699970E-13 8.43631768E-02 1.32032337E-01-3.46897379E-14-3.53771567E-13
21  6-2.85881504E-13 6.39653071E-13 7.98558031E-14 4.06963528E-01 6.36916995E-01
22  1 3.06603915E-02 9.60263648E-02-1.44477530E-02 7.65846723E-13-5.78842396E-13
22  2 2.86162913E-01-9.32392826E-13 4.45546058E-13-3.09417949E-01-8.91764351E-02
22  3-4.02069401E-01 4.91245836E-01-3.90132992E-01-1.21019242E-13 7.15271633E-13
22  4-5.61954802E-04-1.11350945E-02-5.57689866E-02 6.81597589E-13-5.97374673E-13
22  5 1.38501030E-01-5.26386336E-13 4.32818966E-13 2.83495595E-02 4.41570376E-01
22  6 3.96537439E-01-8.38107815E-01-5.61496637E-02 1.33207054E-13 6.29442530E-13
23  1-1.34473253E-11-7.50681270E-12 4.61066425E-11-2.06638171E-15 7.04943946E-16
23  2 4.84728232E-11 9.35027596E-16-2.13035080E-15 1.79738827E-10 5.65389610E-01
23  3-5.65389610E-01-1.73370433E-10 3.02301071E-01 6.44871596E-16 6.08893201E-16
23  4-2.47998192E-11-8.84414480E-11-1.62774143E-12-1.24901799E-15 1.59669492E-15
23  5 1.16270395E-10 1.10044549E-15-8.74575087E-16-1.43092499E-11-5.65389610E-01
23  6 5.65389610E-01 6.51430062E-10-3.02301070E-01 2.63737483E-15-2.69470904E-16
24  1-8.58333238E-03-5.61409586E-03 3.59463252E-02 1.53056025E-13-1.29040446E-13
24  2 7.33267598E-02-2.17180533E-13 6.27257178E-14 2.78215663E-02-3.71802810E-02
24  3 9.23433853E-02-5.51631043E-02 1.61497576E-01 4.18167272E-14 6.93962497E-15
24  4-8.92420095E-03-3.28186599E-02 6.23488932E-04 1.50551023E-13-4.76121925E-14
24  5 5.59702228E-02-1.34097314E-13 7.12397718E-14-1.01975777E-02 3.75255623E-01
24  6-3.39045967E-01-3.62096555E-02-8.90632412E-01-1.57321369E-13 1.61907516E-13
25  1-6.29682098E-13-1.63211099E-11-1.52656547E-11 3.17936112E-15 1.98920802E-15
25  2-6.22686622E-11 2.53613906E-15 6.08232060E-15-3.82882825E-11-5.46474009E-01
25  3 5.46474009E-01-2.54004098E-12-2.92187325E-01-1.01613026E-15-2.36915488E-15
25  4 1.14047106E-11 4.30726411E-11 1.23793489E-11-1.34806508E-15-3.96822377E-15
25  5-7.06649233E-11-2.21425423E-16 1.10393752E-15-4.10284165E-12-5.46474009E-01
25  6 5.46474009E-01-2.53939231E-10-2.92187325E-01-3.93090449E-15-2.91960612E-15
26  1 5.64043527E-14 1.78217745E-13 4.36176555E-14 1.54838377E-01-9.89352713E-02
26  2 4.68363652E-13-2.05456458E-01 1.31278157E-01-1.52172088E-13-1.93520839E-13
26  3-2.26094257E-13 4.19615096E-13-3.32106694E-14 4.61322454E-01-2.94765890E-01
26  4-2.76037459E-14-1.25772619E-13-1.11123370E-13-1.19579416E-02 7.64061946E-03
26  5 2.06515167E-13-1.07818363E-01 6.88914553E-02 2.57438211E-13-2.42574032E-13
26  6-6.65643127E-14 3.09138345E-13 2.18913189E-13-6.19216691E-01 3.95653757E-01
27  1 3.23411017E-02 4.09680847E-02-9.06946337E-02 1.15771253E-14-2.36369538E-14
27  2-5.83967924E-02-6.63572440E-15-1.15301752E-15-1.86340147E-01-1.68851364E-02
27  3-4.19197181E-01 4.36082317E-01-5.01625855E-01-2.00227628E-13 1.06297424E-13
27  4 9.33275531E-03 3.37287021E-02-3.80687621E-02 7.11274052E-14-3.46723443E-14
27  5-2.26394048E-02-7.84068595E-15 8.56867763E-15 8.23699398E-02-2.33567425E-01
27  6-3.48759008E-01 5.82326433E-01-1.43627507E-01 2.43583670E-13-1.37763546E-13
28  1 7.60666808E-17 3.99639313E-15 5.38955261E-15 3.47799304E-02 5.44322281E-02
28  2 1.62324377E-14 4.45576768E-02 6.97348518E-02 1.09115945E-14-5.00058965E-15
28  3 1.42968289E-14-9.29623925E-15 2.13472392E-14-3.44021641E-01-5.38410010E-01
28  4-3.05821652E-15-1.10758739E-14 6.11861853E-17 9.52074912E-02 1.49004193E-01
28  5 1.23905955E-14-1.10254084E-02-1.72552834E-02 2.66104677E-15-1.23236293E-14
28  6 5.68805171E-15 6.63557762E-15 2.06577024E-14 3.55621521E-01 5.56564366E-01
 $END
