 $CONTRL SCFTYP=GVB RUNTYP=ENERGY ICHARG=0 MULT=2 NOSYM=1 ICUT=11
  MAXIT=500 ISPHER=1 $END
 $SYSTEM MWORDS=312 $END
 $SCF NCO=5 NPAIR=2 NSETO=1 NO(1)=1 DIRSCF=.T. $END
 $GUESS GUESS=MOREAD NORB=28 $END
 $DATA
GAMESS inp file produced by MOKIT,nif=28,nbf=28
C1   1
C     6.         0.00000000         0.00000000         0.00000000
   S  8
   1   6.66500000E+03   6.91583963E-04   0.00000000E+00
   2   1.00000000E+03   5.32579615E-03   0.00000000E+00
   3   2.28000000E+02   2.70607210E-02   0.00000000E+00
   4   6.47100000E+01   1.01656846E-01   0.00000000E+00
   5   2.10600000E+01   2.74574824E-01   0.00000000E+00
   6   7.49500000E+00   4.48294319E-01   0.00000000E+00
   7   2.79700000E+00   2.84902611E-01   0.00000000E+00
   8   5.21500000E-01   1.51948592E-02   0.00000000E+00
   S  8
   1   6.66500000E+03  -2.93269653E-04   0.00000000E+00
   2   1.00000000E+03  -2.31803547E-03   0.00000000E+00
   3   2.28000000E+02  -1.14997860E-02   0.00000000E+00
   4   6.47100000E+01  -4.68267270E-02   0.00000000E+00
   5   2.10600000E+01  -1.28466169E-01   0.00000000E+00
   6   7.49500000E+00  -3.01266272E-01   0.00000000E+00
   7   2.79700000E+00  -2.55630702E-01   0.00000000E+00
   8   5.21500000E-01   1.09379336E+00   0.00000000E+00
   S  1
   1   1.59600000E-01   1.00000000E+00   0.00000000E+00
   P  3
   1   9.43900000E+00   5.69792516E-02   0.00000000E+00
   2   2.00200000E+00   3.13207212E-01   0.00000000E+00
   3   5.45600000E-01   7.60376742E-01   0.00000000E+00
   P  1
   1   1.51700000E-01   1.00000000E+00   0.00000000E+00
   D  1
   1   5.50000000E-01   1.00000000E+00   0.00000000E+00

F     9.         0.00000000         0.00000000         1.00000000
   S  8
   1   1.47100000E+04   7.20673709E-04   0.00000000E+00
   2   2.20700000E+03   5.55048697E-03   0.00000000E+00
   3   5.02800000E+02   2.82542077E-02   0.00000000E+00
   4   1.42600000E+02   1.06395828E-01   0.00000000E+00
   5   4.64700000E+01   2.86684201E-01   0.00000000E+00
   6   1.67000000E+01   4.48437966E-01   0.00000000E+00
   7   6.35600000E+00   2.64641181E-01   0.00000000E+00
   8   1.31600000E+00   1.53260610E-02   0.00000000E+00
   S  8
   1   1.47100000E+04  -3.21193890E-04   0.00000000E+00
   2   2.20700000E+03  -2.54619157E-03   0.00000000E+00
   3   5.02800000E+02  -1.26433595E-02   0.00000000E+00
   4   1.42600000E+02  -5.19574917E-02   0.00000000E+00
   5   4.64700000E+01  -1.43447138E-01   0.00000000E+00
   6   1.67000000E+01  -3.32437623E-01   0.00000000E+00
   7   6.35600000E+00  -2.18659068E-01   0.00000000E+00
   8   1.31600000E+00   1.09559041E+00   0.00000000E+00
   S  1
   1   3.89700000E-01   1.00000000E+00   0.00000000E+00
   P  3
   1   2.26700000E+01   6.48340215E-02   0.00000000E+00
   2   4.97700000E+00   3.40535360E-01   0.00000000E+00
   3   1.34700000E+00   7.34646407E-01   0.00000000E+00
   P  1
   1   3.47100000E-01   1.00000000E+00   0.00000000E+00
   D  1
   1   1.64000000E+00   1.00000000E+00   0.00000000E+00

 $END
 $VEC
 1  1-1.75173483E-01 5.31754545E-03 1.02084260E-03-2.73609230E-13-1.83479108E-14
 1  2 5.93318628E-03-6.48850392E-14-4.98114445E-15-9.43963840E-04-9.73173605E-04
 1  3-1.09884528E-03 2.07201888E-03 1.31068524E-05-8.01576781E-14-6.11838696E-15
 1  4-9.85057338E-01 2.02295799E-02 2.43875369E-02-7.69378153E-13-5.02743109E-14
 1  5 1.91383110E-04-4.43568952E-13-2.96422749E-14 4.85892126E-04-1.07905302E-04
 1  6-2.91123714E-04 3.99029016E-04 1.91086558E-05 3.55885097E-14 2.06237033E-15
 2  1-9.76738809E-01 3.46477300E-02 1.18265654E-03-3.02555740E-14 1.45308623E-15
 2  2 4.64361081E-02-7.33123972E-15-1.06024783E-16 9.27575370E-05-4.02117867E-03
 2  3-4.84963946E-03 8.87081813E-03 8.64038266E-05-9.07583634E-15 4.95930312E-16
 2  4 1.76219100E-01 4.26787704E-02 1.65443422E-02-8.49909545E-14 3.99947515E-15
 2  5-7.67891578E-02-4.85879353E-14 1.53484385E-15-2.95353574E-02-2.56598551E-03
 2  6-2.54235700E-03 5.10834251E-03-2.46432196E-06 3.59941781E-15 4.72506484E-16
 3  1-1.49141844E-01-2.00957478E-01 9.47897009E-02 1.99592172E-12 1.98506201E-13
 3  2-3.89666244E-01 4.74262713E-13 4.51378758E-14-2.41607839E-02 3.85245684E-02
 3  3 4.06633232E-02-7.91878916E-02-2.23060157E-04 5.84915862E-13 5.65042237E-14
 3  4 4.32390278E-03-2.39719194E-01-2.58561855E-02 5.60995974E-12 5.60342090E-13
 3  5 5.19144424E-01 3.23542250E-12 3.20448637E-13 1.76076274E-01 1.71957399E-02
 3  6 1.87753685E-02-3.59711084E-02-1.64746433E-04-2.57865994E-13-2.48596784E-14
 4  1 9.72294928E-13 1.90753697E-12-8.57704459E-13 2.17774139E-01 1.95118104E-02
 4  2 3.59531741E-12 5.14598360E-02 4.61062350E-03 1.99762567E-13-3.49694609E-13
 4  3-3.60009291E-13 7.09703900E-13 9.49069999E-16 6.47462088E-02 5.80103658E-03
 4  4-1.29862808E-12 1.19377090E-12-8.76116822E-13 6.25213036E-01 5.60169277E-02
 4  5-5.47266730E-12 3.63313835E-01 3.25516642E-02-2.04380461E-12-1.64965673E-13
 4  6-1.79933595E-13 3.44899268E-13 1.52292683E-15-2.90043246E-02-2.59868727E-03
 5  1 3.41168402E-03-6.26898335E-02-7.50425754E-03 4.87755268E-13 4.70060812E-14
 5  2-3.83826299E-02 1.15059588E-13 1.10473752E-14 1.49358143E-02-5.11314113E-06
 5  3-2.09719075E-03 2.10230389E-03 2.18191994E-04 1.44648641E-13 1.37708798E-14
 5  4 3.21252612E-02 4.42284453E-01 5.17487850E-01 1.40034215E-12 1.35583849E-13
 5  5 3.51410474E-01 8.13990718E-13 7.80772232E-14 1.95833525E-01 3.71554277E-03
 5  6 3.51774581E-03-7.23328858E-03 2.06291170E-05-6.51687556E-14-6.14179440E-15
 6  1-3.02917333E-17-2.48771826E-16 3.33324078E-16-5.88120375E-02 6.56409654E-01
 6  2 1.95697487E-16-5.19756667E-02 5.80107931E-01 4.03422438E-16 8.60171405E-18
 6  3-9.36479152E-17 8.50462012E-17-1.19514359E-16-7.27944647E-04 8.12469546E-03
 6  4 7.85585457E-17 1.25113716E-17-4.16474808E-16 2.82553046E-02-3.15361539E-01
 6  5-1.44737804E-16 3.17584368E-02-3.54460504E-01-2.34679584E-17 2.75957670E-17
 6  6-3.68198183E-17 9.22405134E-18-1.36973092E-16 1.25472191E-03-1.40041327E-02
 7  1 3.48071296E-14 1.58429497E-14-9.25535957E-15-1.86389890E-02 2.08032454E-01
 7  2 3.44902992E-14-3.14919398E-03 3.51486100E-02 2.97250109E-15-3.20828936E-15
 7  3-3.69895808E-15 6.90724744E-15-1.35271411E-16-4.92083845E-03 5.49221902E-02
 7  4 2.39050067E-14 1.31396836E-14-7.29213141E-15-5.76760443E-02 6.43730677E-01
 7  5-4.93527757E-14-3.26059521E-02 3.63919751E-01-1.78364373E-14-1.40689766E-15
 7  6-1.77036444E-15 3.17726210E-15 1.20171266E-16 2.30388028E-03-2.57139412E-02
 8  1 2.66256832E-14 6.20155019E-14-4.89962840E-14-5.69986635E-02 6.36171187E-01
 8  2 5.24438181E-15 4.03636491E-02-4.50504272E-01 8.04968274E-15-2.69327180E-14
 8  3 7.72233455E-14-5.02906275E-14-1.86510189E-14 3.25154489E-02-3.62909561E-01
 8  4 2.89579713E-14 6.26486614E-14-4.55488333E-14-5.95861473E-02 6.65049499E-01
 8  5 1.62070531E-14 5.51566471E-02-6.15611889E-01-5.06545685E-15-1.73377925E-14
 8  6 3.64902546E-14-1.91524621E-14 6.08235190E-15-1.79469858E-02 2.00308957E-01
 9  1 7.16219785E-03 3.94186159E-01 6.30310376E-01 1.11855212E-14 2.11287248E-15
 9  2-2.99027008E-01 2.78382628E-15 4.37509972E-16-1.37572636E-01 1.36263981E-02
 9  3 1.61607706E-02-2.97871687E-02-2.64320876E-04 3.32322592E-15 5.71520653E-16
 9  4 3.88744575E-04-1.26175550E-02-7.35001816E-02 3.22022491E-14 5.00680028E-15
 9  5 2.79457854E-02 1.88494475E-14 2.69540577E-15 2.46706508E-02 2.08923310E-03
 9  6 9.04357405E-04-2.99359050E-03 1.23575908E-04-1.44142741E-15-2.05081557E-16
10  1 2.06653429E-01 5.34989666E-01-2.09102305E-01 2.60213262E-14 6.17306540E-14
10  2 1.25593528E-01 9.74911209E-15-4.30366626E-14 3.84667601E-01-3.47361631E-01
10  3 8.51366757E-01-5.04005126E-01-1.25020666E-01-3.59510121E-15-4.18859719E-14
10  4 1.23035448E-01 1.60516348E-01-3.36680743E-01-1.18811703E-14 5.38028236E-14
10  5 1.61624435E-01-6.74068658E-15-4.58326032E-14 6.53444156E-02-1.83958368E-02
10  6 5.31344394E-02-3.47386026E-02-7.46020772E-03-7.31341191E-15 8.05648591E-15
11  1 5.02346205E-02 3.96996941E-02-5.66381186E-01 1.83440399E-12 3.72123697E-13
11  2-3.58768527E-01 5.57793545E-13-8.94581650E-14-4.06087192E-01 2.04595620E-02
11  3 1.72973955E-01-1.93433517E-01-1.59063980E-02 1.18200380E-13-9.19201850E-14
11  4 3.52194115E-01 9.43069771E-01-1.37273754E-01-2.28020770E-13 1.77488659E-13
11  5-6.33169440E-03-1.20102779E-12-3.04662806E-13-3.78775987E-01-2.92556572E-01
11  6 5.71393755E-01-2.78837183E-01-9.01051871E-02 5.59428330E-14 2.79244314E-14
12  1 2.78879227E-12 6.23895748E-12-3.42611413E-13 9.52970155E-01 8.53830307E-02
12  2 5.63082966E-12 2.83209714E-01 2.53744713E-02-1.03830289E-12 8.95339314E-14
12  3-1.13032704E-12 1.04079311E-12 1.92830045E-13 7.05181222E-02 6.31806709E-03
12  4-6.83200231E-13-2.23429295E-12-2.96462469E-12-1.00799499E-01-9.03109123E-03
12  5 1.63635156E-12-6.41094840E-01-5.74400654E-02 4.73850538E-12 1.07305811E-12
12  6-9.08098790E-13-1.64959321E-13 1.37787366E-13 6.00455395E-02 5.37993500E-03
13  1 6.50733579E-01 1.19567799E+00 1.98545629E+00-4.82443119E-13 6.40908547E-14
13  2 1.35147359E+00-4.05660028E-13-1.06388247E-13 1.35154596E+00-3.55720158E-01
13  3-4.36225715E-01 7.91945873E-01 8.39627933E-03-7.54275910E-13-1.26187074E-13
13  4 6.44727928E-01 1.29706688E+00-4.56013328E+00-3.15940430E-13 8.07311627E-14
13  5 3.04120818E-01 1.22105812E-12 3.97073482E-15 1.54377635E+00 2.06547171E-01
13  6 2.24518444E-01-4.31065615E-01-1.87430318E-03-4.17246640E-13-3.47723280E-15
14  1-9.17469987E-01-1.97608780E+00 1.10071286E+00 2.60564893E-12 2.12919964E-13
14  2-9.61364139E-01 3.53207556E-12 3.27271553E-13 6.90776200E-01-1.59174177E-02
14  3 1.36465752E-01-1.20548334E-01-1.58927123E-02 4.48678733E-12 4.12021152E-13
14  4 1.56274431E-01 4.26768171E-01-2.46260273E-02 1.83194445E-12 1.39339019E-13
14  5-1.28435026E-01-7.70002656E-12-6.63891945E-13-1.14852614E+00-2.37382705E-01
14  6-2.90588400E-01 5.27971105E-01 5.54905638E-03 2.32012579E-12 1.99906325E-13
15  1 1.21052276E-14 2.45633169E-14-5.64855880E-14 2.29124216E-02-2.55740337E-01
15  2-4.01616697E-14-9.56788214E-02 1.06792443E+00-3.50266615E-15-5.04577879E-15
15  3 4.72130563E-14-4.21672775E-14-4.88423241E-15-7.58930986E-02 8.47079122E-01
15  4 3.33590578E-14 8.18854628E-14-2.02539880E-14-4.51636796E-02 5.04094541E-01
15  5-5.62429457E-15 1.27404068E-01-1.42202088E+00-2.37081469E-14-2.02367197E-14
15  6 3.38993802E-14-1.36626605E-14-6.26568937E-15-2.93632396E-02 3.27736345E-01
16  1-4.01733757E-12-8.36846951E-12 3.18660361E-12 3.65012254E-01 3.27029219E-02
16  2-3.15316980E-12-1.16663810E+00-1.04523435E-01 9.11655650E-13-2.50138295E-13
16  3 4.87270555E-13-2.37132260E-13-5.82941479E-14-7.51604224E-01-6.73385142E-02
16  4 3.06760687E-15 4.65217041E-13 2.54019816E-12-4.85055523E-01-4.34579388E-02
16  5 6.26174610E-13 1.34748050E+00 1.20725473E-01-6.06997069E-12-1.09921880E-12
16  6-9.60338532E-13 2.05955733E-12-3.36748899E-14-2.65833946E-01-2.38168647E-02
17  1-7.50718275E-02 1.43085299E-01-1.47135384E-01-5.13806728E-13-1.07142547E-13
17  2 1.74696874E-01 1.05362590E-12 1.39240572E-13 4.90790529E-01-4.98666993E-01
17  3-4.78959051E-01 9.77626044E-01-2.05542806E-03 3.78253973E-13 7.10088354E-14
17  4-3.42843287E-01-7.22247633E-01-7.32812697E-02 3.75663778E-13-1.99691434E-14
17  5 9.47437458E-01-8.97768649E-13-3.45935200E-14-9.67760129E-01-2.32686175E-02
17  6 6.75668591E-02-4.42982416E-02-9.47363218E-03 4.49146003E-14-1.60830941E-14
18  1 2.97956787E-01 7.20654600E-01-6.92653671E-01 1.71518326E-12 2.83186746E-13
18  2-9.21596975E-01-1.72877486E-12-2.51863786E-13 8.76115544E-01 1.94007113E-01
18  3-1.56042038E-01-3.79650748E-02 3.65081687E-02 2.47012354E-13-4.74747975E-14
18  4 1.54151243E-01 3.57845225E-01-3.31441921E-01-5.60325786E-13 5.46407461E-14
18  5-3.49924353E-01 4.89389853E-13-4.74776695E-14 7.69550552E-02-6.02803617E-02
18  6-1.63172951E-01 2.23453313E-01 1.07311217E-02 5.26068840E-13 9.15689733E-14
19  1 1.06341638E-14 2.07084983E-14-5.25669868E-14-6.30082790E-02 7.03245331E-01
19  2-1.21489426E-14 4.14310074E-02-4.62417140E-01-2.98749562E-14-1.54547868E-14
19  3 5.34600542E-14-3.80052674E-14-4.19529377E-15-8.00674306E-02 8.93644151E-01
19  4 3.35886748E-14 8.46452887E-14-2.33082444E-14 3.37121211E-02-3.76265927E-01
19  5 1.49192529E-14 1.48191604E-02-1.65399373E-01-3.35391747E-14-2.06377238E-14
19  6 4.81254783E-14-2.74877545E-14-1.05500049E-14-5.96782920E-02 6.66078032E-01
20  1 1.48169204E-12 2.94047799E-12 3.63963620E-13 5.10362717E-01 4.57268555E-02
20  2 3.12610704E-12-3.45182313E-01-3.09272294E-02-7.30124044E-13-1.11886203E-12
20  3-3.62726213E-13 1.48158824E-12-1.43848222E-13 9.56115667E-01 8.56646024E-02
20  4-8.17835720E-13-2.13088319E-12-1.05042960E-12-3.36030167E-01-3.01070327E-02
20  5 3.05070024E-13-1.91542829E-01-1.71616804E-02 2.97432763E-12 6.49566609E-13
20  6 1.56366365E-12-2.21323026E-12-2.89205559E-14 7.57612414E-01 6.78794942E-02
21  1 3.18990708E-02 1.36580161E-01-4.65163300E-01-2.08716700E-12-9.65829771E-14
21  2 3.19430730E-02 1.99395710E-12 1.22967641E-13-3.95047319E-01 2.65310282E-01
21  3 1.14799063E-01-3.80109345E-01 1.56974777E-02 1.97060436E-12 9.88840119E-14
21  4 2.94085222E-01 7.15489733E-01-1.56957263E-01-3.13368990E-12-1.81018189E-13
21  5 3.28070597E-01 2.47352357E-12 1.41278944E-13-3.94846572E-01 4.03229033E-01
21  6-6.60783534E-01 2.57554501E-01 1.10970560E-01 1.33253022E-12 1.77084744E-13
22  1-3.02931117E-11-1.03178086E-10 2.39302372E-10 3.06389907E-12 2.66999787E-13
22  2 9.24149211E-12-4.98460173E-12-4.39368623E-13 1.94455516E-10 1.17358578E-01
22  3-1.17358578E-01 1.30760035E-10-7.50174952E-01-9.30535215E-13-7.71642700E-14
22  4-1.41305411E-10-3.49511107E-10 1.02099730E-10 6.01803606E-12 5.28923558E-13
22  5-1.33095739E-10-4.84796529E-12-4.25812833E-13 1.37416430E-10-1.17358578E-01
22  6 1.17358578E-01-2.45514336E-10 7.50174952E-01-1.62689888E-13-7.13969606E-15
23  1 1.46135551E-12 3.04067026E-12-2.12741385E-12 3.79263328E-01 3.39807784E-02
23  2 1.89835809E-12-6.30029738E-01-5.64485567E-02-2.09574193E-12-1.57423578E-12
23  3 1.77989570E-12-2.05659922E-13 5.80941108E-12-1.06109307E-01-9.50707928E-03
23  4 8.35918524E-13 2.05585390E-12-1.79315459E-12 7.56352723E-01 6.77666838E-02
23  5 1.26522354E-12-6.08833373E-01-5.45494537E-02 4.67039484E-13 5.56436705E-12
23  6-3.66074737E-12-1.90361968E-12-5.19301184E-12-1.08860077E-02-9.75321796E-04
24  1-4.72392640E-02 2.25032609E-03-2.36385963E-02 3.22102081E-13 3.48247478E-14
24  2 1.52224102E-01-2.10716282E-12-1.85757690E-13 2.67406103E-03 6.57332962E-01
24  3-2.74705929E-01-3.82627033E-01 9.72064437E-02 3.15160056E-13 7.56655622E-15
24  4 4.88565035E-02 3.98096102E-02 3.90521369E-02 2.28638061E-12 2.17593873E-13
24  5 2.16019528E-01-1.51056966E-12-1.38807308E-13-1.28464150E-01-7.26418588E-01
24  6 2.85504145E-01 4.40914443E-01-1.05537881E-01 6.99146937E-13 1.01814931E-13
25  1-4.19394670E-03-3.16670987E-02 6.30736961E-03-6.36923839E-15 1.23867368E-15
25  2 2.70862420E-02 7.22266383E-13 7.36552069E-14 2.29081008E-01 5.37721838E-01
25  3-1.39583345E-01-3.98138493E-01 7.06391425E-02-1.71125944E-13-5.20719681E-14
25  4 3.32424352E-02 1.63319418E-02 5.80274048E-02-7.96299781E-13-5.60432170E-14
25  5 5.85815279E-02 4.85820778E-13 4.78330574E-14-2.14870740E-01 4.58804386E-01
25  6 2.76300935E-01-7.35105321E-01 1.90340890E-02-4.08285275E-13 3.05596626E-14
26  1 6.49268960E-15 2.05409690E-14-3.49132386E-14-2.10730714E-02 2.35200223E-01
26  2 1.36372419E-15 2.55618691E-02-2.85299510E-01 1.03783681E-14 7.86384252E-14
26  3 1.43833074E-15-8.00767559E-14-7.41219594E-15-2.77025532E-02 3.09192244E-01
26  4 2.62687032E-14 5.22305427E-14-1.21808239E-14-6.09628849E-03 6.80414645E-02
26  5 2.43494584E-14 2.69396555E-02-3.00677796E-01-3.63723466E-14 1.68890232E-14
26  6 1.35403567E-14-3.04293799E-14-1.27018769E-15 7.03874658E-02-7.85604656E-01
27  1 5.65987095E-13 1.24655412E-13-1.52138958E-13 7.82478692E-16 1.63707881E-15
27  2-2.63167623E-12 2.06727358E-15-2.12998287E-15-3.29966099E-12-1.01973627E-01
27  3 1.01973627E-01 5.69721890E-12 6.51831869E-01 9.37447201E-16 5.51633989E-15
27  4-4.17613562E-14 1.27491674E-12-3.19630342E-13-3.04533805E-15-1.51321404E-15
27  5-1.68254121E-12 8.52735628E-16-2.12781830E-15 7.04465734E-13-1.01973627E-01
27  6 1.01973627E-01-8.47223814E-13 6.51831869E-01-3.30128112E-15-1.05045983E-14
28  1-1.22649267E-13-3.06663111E-13 1.09754263E-13-3.16599802E-02-2.83663485E-03
28  2-2.77081294E-13 1.28103857E-01 1.14776702E-02 1.67735674E-13-9.35822688E-14
28  3 6.70223723E-14 2.65598965E-14-2.40355906E-14-4.97028117E-01-4.45319965E-02
28  4-2.44779118E-14-3.15438375E-14 1.48850412E-13 1.87440226E-01 1.67939868E-02
28  5-1.54052992E-13 1.04260117E-01 9.34135552E-03-1.59392628E-13 1.71080656E-13
28  6 6.83154189E-14-2.39396075E-13 2.41546882E-14 7.48342421E-01 6.70488922E-02
 $END
