 $CONTRL SCFTYP=GVB RUNTYP=ENERGY ICHARG=0 MULT=2 NOSYM=1 ICUT=11
  MAXIT=500 ISPHER=1 $END
 $SYSTEM MWORDS=312 $END
 $SCF NCO=5 NPAIR=2 NSETO=1 NO(1)=1 DIRSCF=.T. $END
 $GUESS GUESS=MOREAD NORB=28 $END
 $DATA
GAMESS inp file produced by MOKIT,nif=28,nbf=28
C1   1
C     6.         0.00000000         0.00000000         0.00000000
   S  8
   1   6.66500000E+03   6.91583963E-04   0.00000000E+00
   2   1.00000000E+03   5.32579615E-03   0.00000000E+00
   3   2.28000000E+02   2.70607210E-02   0.00000000E+00
   4   6.47100000E+01   1.01656846E-01   0.00000000E+00
   5   2.10600000E+01   2.74574824E-01   0.00000000E+00
   6   7.49500000E+00   4.48294319E-01   0.00000000E+00
   7   2.79700000E+00   2.84902611E-01   0.00000000E+00
   8   5.21500000E-01   1.51948592E-02   0.00000000E+00
   S  8
   1   6.66500000E+03  -2.93269653E-04   0.00000000E+00
   2   1.00000000E+03  -2.31803547E-03   0.00000000E+00
   3   2.28000000E+02  -1.14997860E-02   0.00000000E+00
   4   6.47100000E+01  -4.68267270E-02   0.00000000E+00
   5   2.10600000E+01  -1.28466169E-01   0.00000000E+00
   6   7.49500000E+00  -3.01266272E-01   0.00000000E+00
   7   2.79700000E+00  -2.55630702E-01   0.00000000E+00
   8   5.21500000E-01   1.09379336E+00   0.00000000E+00
   S  1
   1   1.59600000E-01   1.00000000E+00   0.00000000E+00
   P  3
   1   9.43900000E+00   5.69792516E-02   0.00000000E+00
   2   2.00200000E+00   3.13207212E-01   0.00000000E+00
   3   5.45600000E-01   7.60376742E-01   0.00000000E+00
   P  1
   1   1.51700000E-01   1.00000000E+00   0.00000000E+00
   D  1
   1   5.50000000E-01   1.00000000E+00   0.00000000E+00

F     9.         0.00000000         0.00000000         1.20000000
   S  8
   1   1.47100000E+04   7.20673709E-04   0.00000000E+00
   2   2.20700000E+03   5.55048697E-03   0.00000000E+00
   3   5.02800000E+02   2.82542077E-02   0.00000000E+00
   4   1.42600000E+02   1.06395828E-01   0.00000000E+00
   5   4.64700000E+01   2.86684201E-01   0.00000000E+00
   6   1.67000000E+01   4.48437966E-01   0.00000000E+00
   7   6.35600000E+00   2.64641181E-01   0.00000000E+00
   8   1.31600000E+00   1.53260610E-02   0.00000000E+00
   S  8
   1   1.47100000E+04  -3.21193890E-04   0.00000000E+00
   2   2.20700000E+03  -2.54619157E-03   0.00000000E+00
   3   5.02800000E+02  -1.26433595E-02   0.00000000E+00
   4   1.42600000E+02  -5.19574917E-02   0.00000000E+00
   5   4.64700000E+01  -1.43447138E-01   0.00000000E+00
   6   1.67000000E+01  -3.32437623E-01   0.00000000E+00
   7   6.35600000E+00  -2.18659068E-01   0.00000000E+00
   8   1.31600000E+00   1.09559041E+00   0.00000000E+00
   S  1
   1   3.89700000E-01   1.00000000E+00   0.00000000E+00
   P  3
   1   2.26700000E+01   6.48340215E-02   0.00000000E+00
   2   4.97700000E+00   3.40535360E-01   0.00000000E+00
   3   1.34700000E+00   7.34646407E-01   0.00000000E+00
   P  1
   1   3.47100000E-01   1.00000000E+00   0.00000000E+00
   D  1
   1   1.64000000E+00   1.00000000E+00   0.00000000E+00

 $END
 $VEC
 1  1-1.15652577E-01 2.25229177E-03 7.29162819E-04 8.50445084E-14 2.45081725E-13
 1  2 1.26311932E-03 3.34573928E-14 1.09662139E-13-1.05464917E-03-4.44657387E-04
 1  3-3.70629866E-04 8.15287253E-04 2.55939072E-05 2.50116322E-14 7.69245577E-14
 1  4-9.93615596E-01 1.89357579E-02 2.58986829E-02 3.29813286E-13 9.35144689E-13
 1  5 4.32854373E-03 2.13994674E-13 6.13477112E-13 1.38836489E-03-2.11921986E-04
 1  6-9.57852187E-05 3.07707205E-04 4.01525495E-05-1.05234240E-14-3.04932202E-14
 2  1-9.91673875E-01 1.54112733E-02 1.10173952E-02 7.60590016E-14 2.24564341E-13
 2  2 7.87280684E-03 3.04823400E-14 9.93873599E-14-8.17657947E-04-1.33340663E-03
 2  3-6.50199775E-04 1.98360640E-03 2.36208543E-04 2.25989350E-14 7.02206726E-14
 2  4 1.17223867E-01 3.69915525E-02 3.75451070E-02 2.94291803E-13 8.55704447E-13
 2  5-1.45629568E-02 1.90991847E-13 5.61864333E-13-8.03781601E-03-7.32338436E-04
 2  6-9.17834094E-04 1.65017253E-03-6.41323474E-05-9.37808993E-15-2.80471447E-14
 3  1-6.17599937E-02-1.54628016E-01 9.81650078E-02 6.53842539E-15 1.88820337E-14
 3  2-3.41299121E-01 2.58587446E-15 8.03786306E-15-3.91667590E-02 3.55183259E-02
 3  3 3.45735806E-02-7.00919065E-02-3.26631550E-04 1.72561476E-15 5.84533467E-15
 3  4-6.89955200E-03-2.09226791E-01-1.19820335E-01 2.53717099E-14 7.30888785E-14
 3  5 5.11795790E-01 1.68154434E-14 4.81476113E-14 2.65696157E-01 1.34063593E-02
 3  6 1.22804672E-02-2.56868265E-02-3.89260363E-04-8.95171460E-16-2.19953438E-15
 4  1 4.49719014E-02-6.59596401E-02-2.29405654E-03-8.91020632E-15-2.82990598E-14
 4  2-5.40529489E-02-3.60566344E-15-1.22152032E-14 4.36127428E-03-8.33246230E-05
 4  3 1.29806696E-03-1.21474234E-03 4.77595461E-04-3.12158675E-15-9.19627191E-15
 4  4 2.96394944E-02 4.55917498E-01 5.26222070E-01-4.02361877E-14-1.14803694E-13
 4  5 3.09286860E-01-2.60248129E-14-7.53692767E-14 1.90857028E-01 3.10594085E-03
 4  6 3.23114153E-03-6.33708238E-03 4.32862624E-05 1.17630122E-15 3.48265116E-15
 5  1 1.61032346E-12-8.62301007E-14-1.19473699E-13 4.24987620E-02 1.53690964E-01
 5  2 5.61854935E-14 1.87755417E-02 6.78991804E-02 2.93022701E-14-3.87890499E-15
 5  3-3.81741835E-15 7.69632334E-15 1.22210990E-16 1.35272740E-02 4.89195374E-02
 5  4 1.39344964E-12 3.24772110E-14 3.19081664E-14 1.68867320E-01 6.10685584E-01
 5  5 5.74088137E-15 1.11238420E-01 4.02278542E-01 5.54650671E-15 7.34527189E-16
 5  6 4.21068101E-16-1.15559529E-15 5.38603652E-17-5.52046477E-03-1.99640064E-02
 6  1-4.99449875E-17 4.41755534E-16 8.97054731E-16 6.69147245E-01-1.85033190E-01
 6  2-3.10258217E-16 4.67780504E-01-1.29351081E-01 2.43842395E-16 3.54646671E-16
 6  3-2.52612103E-16-1.02034568E-16 2.98534345E-17 1.07244044E-02-2.96552185E-03
 6  4-1.59527869E-16-3.87417903E-16-5.46916547E-16-2.40246248E-01 6.64331059E-02
 6  5-2.19090200E-16-2.44664907E-01 6.76549574E-02-9.26766138E-17 1.80374289E-17
 6  6-2.41756966E-17 6.13826772E-18 5.73948105E-17-9.64509823E-03 2.66707113E-03
 7  1 9.57194882E-14-5.24516351E-15-7.26197497E-15 1.41714107E-01-3.91869107E-02
 7  2 3.43919032E-15 4.49515709E-02-1.24300483E-02 2.00944889E-15-2.92277299E-16
 7  3-2.48275396E-16 5.40552695E-16-1.80691147E-16 4.05987578E-02-1.12264046E-02
 7  4 9.33955685E-14 2.19776455E-15 2.22134492E-15 6.28965112E-01-1.73921992E-01
 7  5 5.27557483E-16 4.03059734E-01-1.11454435E-01 2.24550250E-16-4.44430973E-17
 7  6 1.11352460E-16-6.69093630E-17-2.38379976E-17-1.73904370E-02 4.80881907E-03
 8  1-5.31015600E-14-2.37244346E-13-4.06862149E-13 7.05824514E-01-1.95175187E-01
 8  2-6.64710213E-13-6.33681238E-01 1.75226109E-01-3.94152188E-13 1.78602576E-14
 8  3 1.30181557E-13-1.48041815E-13 3.20457988E-14-2.20042623E-01 6.08463852E-02
 8  4 2.78333021E-13 8.36354950E-13-1.05585638E-14 5.88572101E-01-1.62752507E-01
 8  5-2.80803718E-13-5.10579142E-01 1.41185789E-01-4.90357708E-13 4.72066466E-13
 8  6-2.17880443E-13-2.54186023E-13-2.43464702E-13 1.35696358E-01-3.75228763E-02
 9  1 2.20809965E-02 4.43244196E-01 6.06382433E-01 6.36585636E-15 2.22705720E-14
 9  2-2.54549398E-01 2.22790701E-15 8.91874898E-15-1.33479787E-01 1.25170183E-02
 9  3 9.58831169E-03-2.21053300E-02-1.01255648E-03 2.00633423E-15 6.63423651E-15
 9  4 6.89198188E-04-1.41191168E-02-7.46525119E-02 3.11645253E-14 8.95339187E-14
 9  5 3.86028041E-02 2.04776875E-14 5.94711263E-14 5.34670684E-02-1.32672178E-03
 9  6-6.25986083E-04 1.95270786E-03 2.42268878E-04-8.90351460E-16-2.95520158E-15
10  1 1.95472142E-01 5.54568171E-01-2.73459279E-01 1.05461520E-12 2.64719964E-12
10  2 1.59846409E-01 1.88921124E-14 1.10134190E-12 4.26750918E-01 7.07496033E-01
10  3-2.34786525E-01-4.72709508E-01-3.25780093E-01 1.67557211E-14 4.12621773E-13
10  4 7.24606285E-02 8.15990201E-02-2.49557716E-01 8.16415141E-14-7.01209771E-13
10  5 1.65774083E-01-5.59865609E-13-1.14437605E-12 5.69079083E-02 4.03165392E-02
10  6-2.72590676E-02-1.30574716E-02-2.33632546E-02 7.70488157E-14 2.81606275E-14
11  1 2.00391421E-14-1.44304781E-12-7.19726639E-12 2.25904754E-01 8.16953387E-01
11  2-9.23368314E-12 8.46288392E-02 3.06048860E-01-4.71327093E-12 2.59734449E-12
11  3 1.14194880E-12-3.73929329E-12-5.20518212E-13 3.11050645E-02 1.12487285E-01
11  4 4.46262303E-12 1.29325202E-11-1.07189510E-12-5.22219847E-02-1.88853873E-01
11  5-3.64230082E-12-9.91698428E-02-3.58633856E-01-7.02633061E-12 7.34752770E-12
11  6-3.40760974E-12-3.93991796E-12-3.69621751E-12 3.64088792E-03 1.31667188E-02
12  1 1.11524509E-01 1.91846343E-01-5.82368867E-01 9.97525420E-12 2.29294287E-11
12  2-3.34297945E-01-4.38916773E-13 9.77440996E-12-3.71363523E-01 2.26316163E-01
12  3 2.79811223E-02-2.54297285E-01-6.85713751E-02-5.27853337E-14 3.64740283E-12
12  4 3.20891438E-01 8.84459735E-01-2.08536523E-01 1.27058192E-12-6.28768196E-12
12  5-1.16930752E-01-5.41382019E-12-9.83642702E-12-3.39871685E-01 5.17513380E-01
12  6-2.23182465E-01-2.94330915E-01-2.56084503E-01 8.06043078E-13 2.00924007E-13
13  1-3.99074633E-01-9.95750544E-01 3.84018132E-01 7.76926205E-13 1.66291697E-12
13  2-1.16510028E+00-8.26406263E-14 7.32999798E-13 6.53376134E-01 2.57447992E-01
13  3 4.69478320E-02-3.04395824E-01-7.27772824E-02-6.48929511E-14 3.00659709E-13
13  4-9.64768779E-02-1.57563331E-01 4.75000686E-01 1.35544584E-13-4.98920621E-13
13  5-4.48972883E-01-4.08892339E-13-6.95272676E-13-5.29383808E-01-1.68079873E-01
13  6-1.38148879E-02 1.81894761E-01 5.33348099E-02 4.94022460E-14 2.95992420E-14
14  1 2.50478886E-02 5.70250292E-02 2.07725295E+00-1.26587450E-12-3.11364628E-12
14  2 7.57026909E-01-4.86536394E-15-1.29802970E-12 1.51534817E+00-4.28964829E-01
14  3-4.13537635E-01 8.42502464E-01 5.33372168E-03-6.36129133E-15-4.65828598E-13
14  4 7.27707598E-01 1.49548216E+00-3.83239677E+00-1.02285985E-13 8.34090607E-13
14  5 3.40071346E-02 6.57568011E-13 1.32475696E-12 1.31678158E+00 1.26248757E-01
14  6 1.28893995E-01-2.55142752E-01 9.14551496E-04-8.48651364E-14-2.68961882E-14
15  1 9.05534043E-13 1.04488522E-12-7.78160536E-12-1.22157428E-01-4.41766934E-01
15  2-6.81281866E-12 2.75908935E-01 9.97789880E-01-4.22697746E-12 3.99179964E-12
15  3 4.02856029E-13-4.39465567E-12-1.23804045E-12 1.54287362E-01 5.57960969E-01
15  4 4.50689204E-12 1.25961134E-11-2.20428045E-12 1.60430374E-01 5.80176262E-01
15  5-2.39365103E-12-3.21780685E-01-1.16367935E+00-5.94133557E-12 7.27596935E-12
15  6-3.30331497E-12-3.97265438E-12-3.66100888E-12 5.51451588E-02 1.99425555E-01
16  1 6.91250211E-14 1.55491648E-13-1.84005095E-13 3.78179748E-01-1.04574217E-01
16  2-7.93689067E-14-9.29407573E-01 2.56999778E-01-2.77193266E-15 1.40873072E-14
16  3 2.59989371E-14-4.00862443E-14 4.16169669E-15-5.92106705E-01 1.63729418E-01
16  4 6.04890337E-14 1.58095320E-13-7.07919652E-14-6.17654969E-01 1.70794024E-01
16  5-2.99465410E-14 1.20859164E+00-3.34199882E-01-1.75787638E-14 4.61377578E-14
16  6-1.63890492E-14-2.97487086E-14-2.14581223E-14-2.20402803E-01 6.09458184E-02
17  1 6.24200532E-01 1.44049598E+00-8.65952227E-01 6.49290380E-13 1.74875873E-12
17  2-1.59876294E-01 1.54611967E-13 9.02374852E-13 5.02595058E-01-2.41901119E-01
17  3 4.78865146E-02 1.94014604E-01 1.00189737E-01 5.64441679E-14 3.10697285E-13
17  4 4.15752532E-02 4.55134262E-02-3.86722256E-01 1.05100349E-13-4.47884294E-13
17  5-4.30860649E-01-4.97031111E-13-8.78767590E-13 8.68464939E-01 5.26152040E-02
17  6 1.07776292E-01-1.60391496E-01 1.90711206E-02 5.19925928E-14 2.65159611E-14
18  1 3.66009205E-02-1.16022693E-01 3.29800350E-01-2.07173095E-12-5.21220038E-12
18  2 4.31350964E-01-6.22146058E-14-2.17456062E-12-6.22171404E-01 3.63893163E-01
18  3 2.42323944E-01-6.06217107E-01-4.20307388E-02-3.70999763E-14-7.87248336E-13
18  4 5.77963451E-02 1.16547669E-01 2.33765935E-01-1.64048558E-13 1.36609641E-12
18  5-8.27638177E-01 1.11822112E-12 2.26085374E-12 9.80340690E-01 4.58084274E-02
18  6 4.39640466E-03-5.02048321E-02-1.43175870E-02-1.39952893E-13-5.30030567E-14
19  1-1.60341558E-12-2.04756022E-12 1.25387541E-11-1.74449763E-01-6.30873485E-01
19  2 1.08323345E-11 1.96807048E-01 7.11725604E-01 6.54446271E-12-6.25869478E-12
19  3-4.93982998E-13 6.75267778E-12 1.96983535E-12-1.35844481E-01-4.91262956E-01
19  4-7.11395115E-12-1.98862384E-11 3.59260148E-12-1.02429534E-01-3.70422273E-01
19  5 3.88881173E-12 1.32924737E-01 4.80703903E-01 9.18217244E-12-1.18476585E-11
19  6 5.26499302E-12 6.58266550E-12 5.94377633E-12-1.13305627E-01-4.09754186E-01
20  1 2.57447694E-02 3.18426505E-02-4.26203827E-01 6.57839392E-12 1.76912338E-11
20  2-3.26868197E-01 3.87820753E-13 6.80895001E-12-1.55838261E-01 1.47780423E-01
20  3 5.03938062E-01-6.51718485E-01 1.23136178E-01-7.81231762E-13 2.93862466E-12
20  4 3.04122616E-01 7.87442576E-01-1.37545059E-01 8.96987283E-13-4.39806202E-12
20  5-5.28564577E-02-3.70559464E-12-7.72626131E-12-3.62746886E-01-6.18025973E-01
20  6 5.68866437E-03 6.12337309E-01 2.15640000E-01-2.31046001E-13 4.52116855E-13
21  1-8.44246581E-14-9.43419932E-14 9.71156206E-13-3.93187193E-01 1.08724458E-01
21  2 8.54576458E-13 3.11656883E-01-8.61796665E-02 4.04840847E-13-4.11704628E-13
21  3-5.78812513E-13 9.90517141E-13-5.98834445E-14-8.34259044E-01 2.30690071E-01
21  4-6.20530074E-13-1.67056887E-12 2.87854533E-13 2.68849809E-01-7.43425729E-02
21  5 2.44709163E-13 4.10258510E-02-1.13445043E-02 7.77192045E-13 1.89910639E-13
21  6 2.34630342E-13-4.24540981E-13 1.43864877E-14-6.54607244E-01 1.81012596E-01
22  1-7.24933063E-14-7.84055072E-14 5.93941263E-13-4.02039924E-02-1.45392241E-01
22  2 5.65438406E-13 5.70346366E-02 2.06257965E-01 3.03625169E-13-3.22563291E-13
22  3 3.97470937E-14 2.82816197E-13 1.22816427E-13 1.75822169E-01 6.35836811E-01
22  4-3.34001884E-13-9.45003996E-13 1.60035563E-13-1.60479341E-01-5.80351581E-01
22  5 2.25347795E-13 9.13613022E-02 3.30395646E-01 4.39561462E-13-7.51959322E-13
22  6 3.10622386E-13 4.41336936E-13 3.70598757E-13 1.69041249E-01 6.11314542E-01
23  1 3.14329539E-09 6.85296814E-09-5.83540107E-09-1.01063319E-15-1.11196809E-15
23  2 5.32458517E-09-6.10660118E-15-2.50747361E-14-8.89939095E-09-3.26779182E-01
23  3 3.26779178E-01 4.56099020E-09-6.30114889E-01 3.21548766E-15 1.01185465E-14
23  4 2.17855326E-09 6.05141173E-09-3.68709557E-09 4.63888715E-15 2.00941651E-14
23  5 1.36406117E-09-2.49235352E-15-1.13631873E-14 1.08994004E-09 3.26779175E-01
23  6-3.26779162E-01-1.30364510E-08 6.30114897E-01 4.13494917E-15 1.20763904E-14
24  1 9.69066676E-02 2.04126985E-01-1.68401171E-01-2.11174385E-13-5.41826889E-13
24  2 1.51201547E-01-1.35179597E-14-2.61246055E-13-2.77105199E-01 1.76879175E-01
24  3-3.57731600E-01 1.80852425E-01-1.84833651E-01 2.08467308E-14-9.10847755E-14
24  4 5.88245846E-02 1.71589953E-01-1.05698585E-01-1.05263112E-14 1.88863661E-13
24  5 1.34755525E-02 1.02039844E-13 2.07845554E-13 4.63726498E-02-2.84957869E-01
24  6 8.32616846E-01-5.47658977E-01 3.86384706E-01 9.65935306E-15-1.55765133E-14
25  1-2.31317372E-10-6.65323568E-10 2.52968142E-10 1.03992900E-14-3.94084689E-15
25  2-1.09824950E-09-1.28603595E-14 9.28364271E-16 6.67177729E-10 3.03708474E-01
25  3-3.03708473E-01-4.49470614E-10 5.85628575E-01 1.04769816E-14-2.36998273E-15
25  4-1.72732395E-11 6.40855209E-11 3.58564355E-10 6.08299549E-15 4.72264258E-16
25  5-8.06424136E-10-1.01202927E-14 1.99353077E-15-4.26103468E-10 3.03708475E-01
25  6-3.03708472E-01-3.00214748E-09 5.85628575E-01-2.25908411E-14 7.55560238E-15
26  1 1.31106512E-02-2.04953364E-02-3.52726832E-02-1.02272328E-12-2.50370039E-12
26  2-1.42590841E-01-2.89802850E-15-1.05946328E-12-1.49433674E-01 2.11224880E-01
26  3-6.47151589E-01 4.35926709E-01-2.96770816E-01-3.49299994E-14-3.56879133E-13
26  4-2.14870703E-02-8.65516345E-03-1.68772480E-02-7.77220759E-14 6.68412563E-13
26  5-1.03020359E-01 5.42859376E-13 1.07020411E-12 1.44339021E-01-2.82538363E-01
26  6-2.98743768E-01 5.81282131E-01-5.60277566E-03-4.91927853E-14-5.16663111E-14
27  1-5.95721623E-14-7.00095710E-14 4.82189345E-13-2.06722821E-01 5.71631576E-02
27  2 4.27678225E-13 2.62625644E-01-7.26214825E-02 2.67173793E-13-2.41502367E-13
27  3 4.13525161E-15 2.37367115E-13 1.10220208E-13-4.37693221E-01 1.21031317E-01
27  4-2.74987920E-13-7.71793744E-13 1.38221758E-13-1.37357615E-02 3.79823136E-03
27  5 1.59015625E-13 2.00513677E-01-5.54462121E-02 3.50062823E-13-4.41235367E-13
27  6 2.02131529E-13 2.39103838E-13 2.46447100E-13 7.26407861E-01-2.00866954E-01
28  1-8.32405315E-14-1.09078639E-13 6.59753261E-13 8.95224981E-03 3.23746053E-02
28  2 5.60977216E-13 2.67173289E-02 9.66195520E-02 3.37941238E-13-3.12819414E-13
28  3-7.10566740E-14 3.83876088E-13 8.54696606E-14-1.55527031E-01-5.62442245E-01
28  4-3.77006188E-13-1.04956451E-12 1.90135887E-13 5.13399964E-02 1.85664091E-01
28  5 1.93163392E-13 7.61634997E-03 2.75434714E-02 4.90821960E-13-5.75133204E-13
28  6 2.56833369E-13 3.18299835E-13 2.84743142E-13 1.83760344E-01 6.64544159E-01
 $END
