 $CONTRL SCFTYP=GVB RUNTYP=ENERGY ICHARG=0 MULT=2 NOSYM=1 ICUT=11
  MAXIT=500 ISPHER=1 $END
 $SYSTEM MWORDS=312 $END
 $SCF NCO=5 NPAIR=2 NSETO=1 NO(1)=1 DIRSCF=.T. $END
 $GUESS GUESS=MOREAD NORB=28 $END
 $DATA
GAMESS inp file produced by MOKIT,nif=28,nbf=28
C1   1
C     6.         0.00000000         0.00000000         0.00000000
   S  8
   1   6.66500000E+03   6.91583963E-04   0.00000000E+00
   2   1.00000000E+03   5.32579615E-03   0.00000000E+00
   3   2.28000000E+02   2.70607210E-02   0.00000000E+00
   4   6.47100000E+01   1.01656846E-01   0.00000000E+00
   5   2.10600000E+01   2.74574824E-01   0.00000000E+00
   6   7.49500000E+00   4.48294319E-01   0.00000000E+00
   7   2.79700000E+00   2.84902611E-01   0.00000000E+00
   8   5.21500000E-01   1.51948592E-02   0.00000000E+00
   S  8
   1   6.66500000E+03  -2.93269653E-04   0.00000000E+00
   2   1.00000000E+03  -2.31803547E-03   0.00000000E+00
   3   2.28000000E+02  -1.14997860E-02   0.00000000E+00
   4   6.47100000E+01  -4.68267270E-02   0.00000000E+00
   5   2.10600000E+01  -1.28466169E-01   0.00000000E+00
   6   7.49500000E+00  -3.01266272E-01   0.00000000E+00
   7   2.79700000E+00  -2.55630702E-01   0.00000000E+00
   8   5.21500000E-01   1.09379336E+00   0.00000000E+00
   S  1
   1   1.59600000E-01   1.00000000E+00   0.00000000E+00
   P  3
   1   9.43900000E+00   5.69792516E-02   0.00000000E+00
   2   2.00200000E+00   3.13207212E-01   0.00000000E+00
   3   5.45600000E-01   7.60376742E-01   0.00000000E+00
   P  1
   1   1.51700000E-01   1.00000000E+00   0.00000000E+00
   D  1
   1   5.50000000E-01   1.00000000E+00   0.00000000E+00

F     9.         0.00000000         0.00000000         2.40000000
   S  8
   1   1.47100000E+04   7.20673709E-04   0.00000000E+00
   2   2.20700000E+03   5.55048697E-03   0.00000000E+00
   3   5.02800000E+02   2.82542077E-02   0.00000000E+00
   4   1.42600000E+02   1.06395828E-01   0.00000000E+00
   5   4.64700000E+01   2.86684201E-01   0.00000000E+00
   6   1.67000000E+01   4.48437966E-01   0.00000000E+00
   7   6.35600000E+00   2.64641181E-01   0.00000000E+00
   8   1.31600000E+00   1.53260610E-02   0.00000000E+00
   S  8
   1   1.47100000E+04  -3.21193890E-04   0.00000000E+00
   2   2.20700000E+03  -2.54619157E-03   0.00000000E+00
   3   5.02800000E+02  -1.26433595E-02   0.00000000E+00
   4   1.42600000E+02  -5.19574917E-02   0.00000000E+00
   5   4.64700000E+01  -1.43447138E-01   0.00000000E+00
   6   1.67000000E+01  -3.32437623E-01   0.00000000E+00
   7   6.35600000E+00  -2.18659068E-01   0.00000000E+00
   8   1.31600000E+00   1.09559041E+00   0.00000000E+00
   S  1
   1   3.89700000E-01   1.00000000E+00   0.00000000E+00
   P  3
   1   2.26700000E+01   6.48340215E-02   0.00000000E+00
   2   4.97700000E+00   3.40535360E-01   0.00000000E+00
   3   1.34700000E+00   7.34646407E-01   0.00000000E+00
   P  1
   1   3.47100000E-01   1.00000000E+00   0.00000000E+00
   D  1
   1   1.64000000E+00   1.00000000E+00   0.00000000E+00

 $END
 $VEC
 1  1-2.40290974E-02 3.70192642E-04 7.50557106E-04 2.78038576E-15 3.97918793E-15
 1  2-2.20823167E-04 5.69000046E-15 1.55482009E-14 1.34170202E-04-1.15593492E-06
 1  3-1.86199133E-06 3.01792625E-06-4.24530349E-06 1.02105479E-15 4.82642641E-15
 1  4 9.99381690E-01-2.01092149E-02-2.45063682E-02 1.35764779E-13 6.60309806E-13
 1  5-3.09968300E-04 9.59141626E-14 4.61107057E-13 2.96498610E-05 1.08787040E-04
 1  6 1.08221500E-04-2.17008540E-04-3.40041710E-06-5.49117108E-16-6.48891799E-17
 2  1-1.00009570E+00 1.49087310E-02 2.20304194E-02 5.88128914E-15-1.12303015E-15
 2  2-2.71040062E-04 3.44403425E-14-1.42922851E-14 2.80224218E-04-4.21829768E-05
 2  3-2.77966695E-05 6.99796463E-05 8.65005131E-05 1.22983209E-14-6.75819740E-15
 2  4-2.39004179E-02 1.23175266E-05-9.51950846E-04 1.72001178E-12-9.58351580E-13
 2  5-7.41638821E-04 1.19952122E-12-6.67463875E-13-1.95721432E-04-1.22786971E-05
 2  6-1.22482308E-05 2.45269279E-05 1.83184937E-07 3.44203929E-16 8.97511651E-17
 3  1 2.80729759E-12-1.42255927E-13-1.74287816E-13 1.42065181E-03-1.29077373E-03
 3  2-4.78142180E-14 9.34586706E-03-8.49145115E-03-3.38804701E-14 7.12250626E-16
 3  3-6.72578384E-17-6.44992788E-16-5.63127203E-16 2.96995002E-03-2.69843157E-03
 3  4 5.73770678E-13-1.14088874E-15 4.37536257E-15 5.07186428E-01-4.60818476E-01
 3  5 6.51167433E-14 3.44169109E-01-3.12704512E-01 3.96462174E-14 3.57366552E-16
 3  6 4.20929501E-16-7.78296053E-16-3.74976950E-18-2.64778836E-04 2.40572272E-04
 4  1 6.79296203E-13-3.80220451E-14-4.59855274E-14 2.66875249E-03 2.93728536E-03
 4  2 9.07723593E-14 1.09841055E-02 1.20893370E-02 6.28141973E-14-2.75044632E-16
 4  3-8.49292018E-16 1.12433665E-15-4.92763484E-16 2.82175637E-03 3.10568399E-03
 4  4-8.40730279E-13 7.51097642E-15 5.89715143E-15 4.60290222E-01 5.06605020E-01
 4  5-1.05451695E-13 3.13063914E-01 3.44564675E-01-6.71716842E-14-3.26780653E-16
 4  6-4.48389534E-16 7.75170187E-16 1.70873055E-17-2.92283035E-04-3.21692832E-04
 5  1-2.50027696E-03-1.18118286E-02-7.01243088E-03 7.06561873E-17 3.50015617E-16
 5  2-2.85179460E-02 1.71333808E-16 6.69617246E-16-1.61957844E-02-8.47461369E-04
 5  3-8.25762531E-04 1.67322390E-03 1.30468540E-04 4.50730206E-17 2.75837961E-17
 5  4 3.86109337E-02 5.12198335E-01 5.70058156E-01 2.63250557E-15 2.43849379E-14
 5  5 4.10350253E-02 1.46004099E-15 1.65652617E-14 2.76485765E-02 7.06385702E-04
 5  6 7.14665528E-04-1.42105123E-03 4.97840923E-05 2.01084776E-17 9.64145400E-17
 6  1 8.93124546E-17-2.39502085E-17 8.34817574E-18-5.03251869E-01 4.57243415E-01
 6  2 1.98918916E-16-3.38123672E-01 3.07211620E-01 2.80209316E-17-2.24087001E-16
 6  3 1.88127690E-16 3.59593109E-17 3.16078003E-17-5.00981949E-04 4.55181017E-04
 6  4-5.76876997E-17-1.06291864E-16 5.45694785E-17 1.82221185E-02-1.65562101E-02
 6  5 7.58726077E-17 1.53328250E-02-1.39310625E-02-3.80855435E-17-4.14334088E-17
 6  6 3.05709009E-17 1.08625079E-17-1.72959435E-17 7.28682069E-04-6.62064264E-04
 7  1 3.20127732E-02 4.99646009E-01 5.78517376E-01 3.48322942E-16-6.10620235E-18
 7  2-3.42313100E-02 2.32235355E-15-9.38023141E-16-2.48501081E-02-4.34823246E-04
 7  3-5.73356724E-04 1.00817997E-03-8.32959858E-04 8.33718294E-16-4.12870113E-16
 7  4-3.42166577E-04-5.78987554E-03-1.23634812E-02 1.25550248E-13-6.06320770E-14
 7  5 1.62198705E-02 8.52896929E-14-4.09108215E-14 1.27891937E-02-5.59938121E-04
 7  6-5.57597509E-04 1.11753563E-03 1.40733868E-05 1.90198230E-17 6.06112583E-17
 8  1 3.62667653E-01 8.96256315E-01-8.96847704E-01 7.20681461E-15 1.71119727E-14
 8  2-9.70447287E-02 1.08285325E-14 2.34402873E-14 4.53467921E-03-1.40664309E-01
 8  3-2.59225950E-01 3.99890259E-01-7.12875274E-01 1.88063565E-14-3.22317255E-15
 8  4-4.53747174E-03 5.92741008E-04 4.25754451E-02-1.66618833E-13 4.21175819E-14
 8  5 2.26776953E-02 1.89256161E-13-5.07979809E-14-1.31591412E-01 4.65356768E-03
 8  6 4.68888979E-03-9.34245747E-03 2.12381187E-04 9.24397887E-15-4.71501094E-15
 9  1-1.05797081E-03-5.60218799E-03-9.91859188E-03 1.81925273E-16-2.00275744E-16
 9  2-4.21424253E-01 8.66483198E-16 4.07971382E-15-2.93870092E-01 2.79336356E-03
 9  3 3.01390394E-03-5.80726750E-03 1.32604258E-03 1.57971368E-16 7.10853232E-16
 9  4-3.08765018E-03-2.13884942E-02 2.36571205E-03 3.01537784E-14 1.65185891E-13
 9  5 5.00191562E-01 2.05005692E-14 1.12392410E-13 3.15543845E-01 1.36929653E-03
 9  6 1.36437397E-03-2.73367050E-03-2.95978509E-05-1.91321517E-16 1.10169936E-16
10  1-2.56247160E-02-9.38179996E-02 2.45838423E-02 1.88541909E-14 1.72097209E-14
10  2-5.20672502E-01 3.69714398E-14 3.47108779E-14-3.63137194E-01 1.29617541E-02
10  3 2.18078029E-02-3.47695570E-02 5.31886151E-02 1.77511931E-15 2.13397855E-14
10  4 2.26549357E-02 8.20959912E-02 3.56194373E-03-2.88291073E-14-1.99755366E-13
10  5-5.20541199E-01 2.91743808E-14 2.23083946E-13-2.84627577E-01-3.08659660E-02
10  6-3.08526104E-02 6.17185764E-02 8.03027646E-05 5.95872493E-16 1.07701098E-14
11  1-3.29688321E-03-2.16715745E-02-9.67078622E-03 1.33824348E-14 1.38601175E-14
11  2-3.36955888E-02 2.82623237E-14 2.75855520E-14-8.37372879E-02-6.03614844E-03
11  3-3.74989383E-03 9.78604227E-03 1.37465571E-02 4.43107412E-15 1.54694238E-14
11  4-2.94763948E-01-7.24795409E-01 7.28747171E-01-4.13554901E-14-1.31814769E-13
11  5-1.26646191E-04 4.59270704E-14 1.43022039E-13-8.00638291E-02 4.40768135E-01
11  6 4.40539735E-01-8.81307870E-01-1.37330175E-03 4.69755161E-15 8.29416164E-16
12  1 4.55967376E-14 1.31439435E-13-1.18180839E-13 8.90910734E-02 9.80555154E-02
12  2 1.15882847E-13 1.74139589E-01 1.91661700E-01 5.89969633E-14 1.44241425E-14
12  3-4.08352015E-14 2.64110590E-14-3.83369070E-14 5.93572163E-02 6.53299788E-02
12  4-7.73276823E-14-1.75657567E-13 1.61600755E-13-5.72331820E-01-6.29921932E-01
12  5 1.16708975E-13 6.32169885E-01 6.95781218E-01 4.22397604E-14 1.07761018E-13
12  6 1.25438966E-13-2.33199984E-13-1.46073958E-15 2.79650263E-02 3.07789804E-02
13  1-2.19029687E-14-5.59959286E-14 5.84502545E-14-1.22102017E-02 1.10936304E-02
13  2-1.44949851E-14-2.44067127E-02 2.21748390E-02-7.68045250E-14 7.31282864E-14
13  3 1.25221870E-13-1.98350156E-13 3.28569601E-13 7.99690624E-02-7.26582941E-02
13  4 3.84891376E-17 4.82130701E-14-1.99158182E-14-6.75382801E-01 6.13639514E-01
13  5-1.33611247E-13 7.69273991E-01-6.98947190E-01 2.58986925E-14-3.48185625E-14
13  6-5.06937391E-14 8.55123016E-14 8.68260778E-16 3.80653092E-02-3.45853797E-02
14  1 2.82865187E-01 6.48771122E-01-7.66977792E-01 2.23255749E-14 3.90366317E-14
14  2 6.10836615E-01 7.74039987E-14 5.40240377E-14-9.52878469E-01 1.15441295E-01
14  3 1.36714332E-01-2.52155627E-01 1.27908331E-01 6.31141062E-15 3.48282942E-14
14  4-3.91334373E-01-9.05937617E-01 1.11839985E+00-2.39091145E-14-3.71537342E-13
14  5 3.75218812E-01 2.20261566E-14 4.12993097E-13-7.21196854E-01-1.43903731E-01
14  6-1.43853613E-01 2.87757344E-01 3.01346403E-04 1.18127507E-15 1.96214917E-14
15  1-6.97998926E-02-1.60757135E-01 1.92619276E-01 3.11455538E-14 3.20239163E-14
15  2-2.81038677E-01 2.39672536E-14 2.36621960E-14 3.79933610E-01-4.29483222E-02
15  3-5.41629986E-02 9.71113208E-02-6.74304553E-02 6.85679692E-15 1.65082658E-14
15  4-4.13019259E-01-1.04522182E+00 9.44182769E-01-8.79367403E-14-1.78223514E-13
15  5-4.79014719E-01 9.78215056E-14 1.97299060E-13 6.64364656E-01-1.70176446E-01
15  6-1.70076739E-01 3.40253185E-01 5.99513282E-04 1.99129198E-15 1.06122380E-14
16  1-7.57814340E-14-1.88615688E-13 1.78898496E-13 6.85002586E-01 7.53928467E-01
16  2 6.61751082E-14-7.04922814E-01-7.75853110E-01-8.58329083E-14-1.41847553E-14
16  3-2.50757172E-14 3.92604725E-14-8.42812019E-14-1.09283992E-02-1.20279988E-02
16  4-1.03218325E-14-2.41374204E-14 2.70584368E-14-6.87221208E-02-7.56372920E-02
16  5 3.51038951E-14 1.26066884E-01 1.38752203E-01-4.10911708E-14 1.08616120E-14
16  6 9.73692150E-15-2.05985335E-14 1.04624387E-16-1.84596702E-02-2.03170925E-02
17  1-4.68798962E-01-1.17769207E+00 1.13221497E+00 7.55737341E-13-9.39616336E-13
17  2 3.75442403E-01-8.99752290E-13 1.03413022E-12-4.60918399E-01-7.32894961E-02
17  3-1.49922114E-01 2.23211610E-01-4.60768741E-01-1.45217521E-14 6.61989303E-15
17  4-4.28433934E-02-1.08513755E-01 1.15786055E-01-1.81654558E-13 2.33333326E-13
17  5 1.13011110E-01 2.66805743E-13-3.34947583E-13-1.15276877E-01-3.15030707E-02
17  6-3.14425154E-02 6.29455861E-02 3.64100432E-04-2.19330352E-14 2.13416077E-14
18  1-5.74056961E-13-1.44562549E-12 1.39233378E-12-7.14713050E-01 6.49372368E-01
18  2 4.70410070E-13 8.10642601E-01-7.36531702E-01-5.70802253E-13-9.56842412E-14
18  3-1.92665185E-13 2.88349426E-13-5.81059045E-13 1.09994669E-02-9.99384431E-03
18  4-4.74935710E-14-1.25224594E-13 1.33506093E-13 1.93585055E-02-1.75889517E-02
18  5 1.20568499E-13-7.73976480E-02 7.03220516E-02-1.18553571E-13-2.97520440E-14
18  6-3.09173160E-14 6.06693600E-14 5.14902192E-16 2.26304145E-02-2.05614775E-02
19  1-7.39460964E-02-2.17167470E-01 1.34588606E-01-2.13441222E-14 1.28739971E-14
19  2-6.28646665E-01 2.91801989E-14-4.51719468E-15 5.46413120E-01 8.78651767E-02
19  3 7.49522923E-02-1.62817469E-01-7.76412660E-02-4.97277024E-15 6.02273453E-15
19  4-9.80556557E-02-2.67092549E-01 1.63704122E-01-7.88449385E-14 3.63177104E-15
19  5 6.54488827E-01 8.72486420E-14-4.40692982E-15-6.78980375E-01-6.31040850E-02
19  6-6.30512410E-02 1.26155326E-01 3.17734676E-04 2.38627097E-16 2.23726437E-15
20  1-8.89979673E-15-2.50408616E-14 2.53301191E-14 5.84722267E-02 6.43557946E-02
20  2-7.24961578E-16 1.76197316E-02 1.93926624E-02 3.24829342E-15 1.59846662E-13
20  3-1.37841650E-13-2.20050116E-14 1.77554246E-14 6.11356568E-01 6.72872338E-01
20  4 1.08414121E-14 2.61246591E-14-2.68698529E-14 9.36369029E-02 1.03059174E-01
20  5-2.52486346E-15-1.23598914E-01-1.36036071E-01 4.07799662E-15-7.35044114E-14
20  6 3.64366082E-14 3.70678032E-14-7.95164367E-15 2.58297962E-01 2.84288347E-01
21  1-8.79282834E-15-2.67316475E-14 2.49837579E-14 1.55257186E-02-1.41062598E-02
21  2-3.84101099E-15-9.56329572E-03 8.68907895E-03 3.49125306E-15 3.20955050E-14
21  3 5.65046352E-15-3.77459685E-14-5.39506369E-14 6.80429129E-01-6.18222437E-01
21  4-6.02906150E-16-6.49504268E-15 4.58781059E-15 9.20238815E-02-8.36110522E-02
21  5 4.47234001E-15-1.20058046E-01 1.09082286E-01-4.44644174E-15 4.68850705E-14
21  6-3.60445771E-14-1.08404934E-14 5.18281620E-15 2.79324787E-01-2.53788149E-01
22  1-8.62745331E-14-9.79773195E-13-8.98078841E-13-1.18775344E-15-3.10780893E-15
22  2-8.44911785E-15-2.47880930E-16 1.05636210E-15-6.48956475E-14 6.09607473E-01
22  3-6.09607473E-01 2.59672800E-12 6.75911251E-02-6.70605420E-14-6.66268034E-14
22  4-5.07792496E-15-7.61355369E-16 3.75057686E-14 4.20677433E-15 7.33472322E-15
22  5 1.18694809E-13-3.62648239E-15-6.83767978E-15-1.56636508E-13-6.09607473E-01
22  6 6.09607473E-01-2.24746872E-12-6.75911251E-02-8.36970840E-14-2.17170314E-13
23  1-9.59566707E-05-2.63302455E-04 2.03639378E-04 2.38437312E-17 3.18888037E-16
23  2-1.81029215E-04 1.26071285E-16-6.17615018E-17 5.63825006E-05-2.19559403E-03
23  3-1.85321935E-03 4.04881338E-03 2.05859534E-03-5.27314246E-16-9.51604339E-15
23  4-6.08529305E-05-1.80553592E-04 9.83859759E-05-4.01540801E-17-7.12601213E-17
23  5 6.53588341E-04 5.72093153E-17 3.15754949E-16-4.71760405E-04 8.18591508E-02
23  6-8.36920602E-02 1.83290942E-03-9.95409334E-01-5.87210085E-16 1.77725951E-14
24  1 8.67482498E-14 9.83487636E-13 9.00581668E-13 1.00727143E-15 8.81858783E-16
24  2 1.36760818E-14-1.42833290E-16-2.66472528E-16 6.73974547E-14-6.09529960E-01
24  3 6.09529960E-01-2.58801735E-12-6.75825308E-02 6.03054925E-14 5.04117844E-15
24  4 4.65468026E-15 8.07553202E-16-3.69802717E-14-3.72367141E-15-1.73580474E-15
24  5-1.14189953E-13 3.30390039E-15 1.92455756E-15 1.54976323E-13-6.09529960E-01
24  6 6.09529960E-01 2.16483018E-12-6.75825308E-02 7.28788234E-14 6.59201837E-14
25  1 1.19539283E-15 2.42465094E-15-2.56549098E-15 1.02460761E-02 1.12770491E-02
25  2 9.83417976E-17-1.55735761E-03-1.71406214E-03-4.26274986E-16 1.41302457E-13
25  3-1.46381985E-13 5.07952797E-15 1.51965148E-14-2.61974688E-01-2.88334922E-01
25  4-8.75118683E-16-2.96844078E-15 2.97275425E-15-1.03844577E-03-1.14297270E-03
25  5 7.01056001E-16 7.83189835E-03 8.61999714E-03-7.75555862E-16-5.28890262E-14
25  6 5.95843426E-14-6.69531640E-15 8.49857557E-15 6.18773708E-01 6.81035527E-01
26  1-9.27153453E-16-2.52742645E-15 2.52309948E-15-1.10737147E-02 1.00613347E-02
26  2 8.15149063E-17 6.62064645E-03-6.01536347E-03 2.59580166E-16 5.88207504E-14
26  3-4.81265629E-14-1.06941875E-14-6.44271993E-15 2.80981212E-01-2.55293265E-01
26  4-1.91685196E-16-9.03211202E-17 1.51113765E-16-1.38026954E-04 1.25381359E-04
26  5-6.73867241E-16-7.27159826E-03 6.60684228E-03 1.70131893E-16-4.12048155E-14
26  6 4.97495896E-14-8.54477406E-15 8.65957102E-15-6.84059955E-01 6.21521638E-01
27  1 5.25518805E-03 1.77376297E-02-6.54455867E-03 8.50003655E-16 1.06478143E-16
27  2 2.73046858E-02-4.86787731E-16 2.89992219E-17-3.29817425E-03 4.64784898E-01
27  3 3.83238987E-01-8.48023885E-01-4.90310888E-01-5.81768641E-14 2.78420168E-14
27  4 1.12818745E-02 3.94922692E-02-1.37269111E-02 9.35424329E-15-2.18337229E-15
27  5-1.34184425E-01-9.18548199E-15 1.74613448E-15 9.53811622E-02 2.80312389E-02
27  6 2.72566642E-02-5.52879031E-02-4.65728305E-03-8.72323681E-15 3.00747151E-15
28  1 2.19550876E-14 6.13500159E-14-6.21908590E-14-3.87922754E-01-4.26956086E-01
28  2 1.55974712E-15-3.31450131E-01-3.64801129E-01-7.13389986E-15 1.95768985E-14
28  3-3.39662040E-14 1.43893055E-14-2.58876631E-14 8.19875750E-02 9.02373897E-02
28  4-2.82623754E-14-6.82157642E-14 7.10566871E-14-2.08707910E-01-2.29709313E-01
28  5 2.06524385E-15 2.72973486E-01 3.00441521E-01-8.31641123E-15 3.93942715E-14
28  6 5.72302151E-14-9.66244866E-14-1.47109361E-15 3.99420141E-02 4.39610872E-02
 $END
